4096
Lattice="46.1848234655 0.0 0.0 0.0 46.1860053517 0.0 0.0 0.0 46.1854216731" Properties=species:S:1:pos:R:3:velocities:R:3:local_energy:R:1:fix_atoms:S:3:forces:R:3 temperature=294.85311805 pressure=-78.65158566 time_step=1.0 time=30000.0 virial="-106.07863283 9.97577806 -11.18878519 9.97577806 -110.62640496 0.39512289 -11.18878519 0.39512289 -109.94682895" volume=98517.776753 step=30000 energy=-18338.875996 stress="0.00107675 -0.00010126 0.00011357 -0.00010126 0.00112291 -4.01e-06 0.00011357 -4.01e-06 0.00111601" pbc="T T T"
Ge       0.01986636       0.02069239       0.21219731      -0.00091520      -0.00170862       0.00136568      -4.51449311 F F F      -0.08217965       0.04087470      -0.43052861
Ge       1.62739873       1.41313434       1.57360087       0.00213941       0.00096562      -0.00390879      -4.49098387 F F F      -0.19869427      -0.48511035      -0.31501880
Ge       0.12745200       2.83001875       2.89516642      -0.00085409      -0.00037962      -0.00368845      -4.41734577 F F F      -0.61534189      -0.08136266      -0.62839309
Ge       1.36377555       4.18790689       4.37571836      -0.00169057      -0.00163404       0.00057777      -4.44271971 F F F       1.42363611       0.42521549       0.57648707
Ge       2.95552757      45.99693155       2.98995309      -0.00081426       0.00179593       0.00265252      -4.51055990 F F F      -0.22590018       0.37683898       0.25217672
Ge       4.39962392       1.35836384       4.42192861      -0.00346821      -0.00164157       0.00088636      -4.48549500 F F F      -0.69939923      -0.34178572      -0.26368049
Ge       2.95001660       2.81668848       0.00051741       0.00077244      -0.00367412      -0.00118618      -4.50564899 F F F       0.14529886       0.38795441       0.46043012
Ge       4.41900665       4.33173413       1.47278841      -0.00132729      -0.00359515      -0.00134138      -4.48857149 F F F      -0.59402294      -0.05433369      -0.32628227
Ge      46.04839088      46.14226807       5.79994545       0.00282595      -0.00123931       0.00055014      -4.47359547 F F F       0.37424909      -0.31702260       0.04186692
Ge       1.33932667       1.28651430       7.29313446      -0.00022508      -0.00190731      -0.00123800      -4.49417928 F F F      -0.09023551      -0.07379683       0.17860406
Ge      46.14574634       2.79052168       8.79504603       0.00203241      -0.00208642       0.00119939      -4.50878100 F F F       0.01691217      -0.33640494      -0.13720925
Ge       1.47455837       4.17213036      10.16055429      -0.00106821      -0.00091848       0.00531644      -4.46246477 F F F      -0.90210980       0.98869921       0.04618535
Ge       2.84244585      46.02279125       8.67858248       0.00067196       0.00103336      -0.00214526      -4.47226939 F F F       0.47606776       1.02770613       0.05216478
Ge       4.25988192       1.39326721      10.21469339       0.00201418       0.00129438      -0.00029227      -4.48364814 F F F       0.44092938      -0.32727439      -0.71058593
Ge       2.81672187       2.59852321       5.87454399       0.00038454       0.00028442      -0.00092434      -4.46995994 F F F       0.13194960       1.05763758      -0.44793100
Ge       4.32246250       4.06569695       7.28363726       0.00299998      -0.00076379       0.00085791      -4.44209831 F F F      -0.23597586       0.60206853       0.47286173
Ge       0.11710612      46.15238564      11.59825820      -0.00061956       0.00230942       0.00357755      -4.50236712 F F F      -0.03660398      -0.61683793       0.54870946
Ge       1.40091441       1.56142017      13.08054366      -0.00042480       0.00202709      -0.00051463      -4.50318198 F F F      -0.26476360      -0.30049664      -0.23477581
Ge      45.91169174       2.90115475      14.39285125       0.00317540       0.00131150       0.00166200      -4.45852905 F F F       1.00006335      -0.26611669       0.86675594
Ge       1.38875760       4.31445912      15.94423365       0.00070678       0.00064968       0.00100925      -4.46051464 F F F      -0.24030606       0.24822522      -1.10490196
Ge       2.89913980       0.08821199      14.40540504       0.00214751      -0.00189852       0.00047575      -4.46420011 F F F      -0.22111004      -0.30641793       0.08495982
Ge       4.33873342       1.36626619      15.88989086      -0.00141276      -0.00157236      -0.00089701      -4.48948284 F F F       0.23636428       0.29318656       0.44574219
Ge       2.89687885       2.92547712      11.65040155       0.00023621       0.00186170       0.00267996      -4.43500096 F F F       0.09061775      -0.55256369      -0.01001233
Ge       4.24982533       4.40284069      13.00887258       0.00015599       0.00127434      -0.00168458      -4.49893533 F F F       0.68772871       0.47742556       0.25248462
Ge       0.12429543      46.15788471      17.39075431      -0.00204094      -0.00190002       0.00364947      -4.49737717 F F F      -0.25503003      -0.05576947      -0.56924358
Ge       1.54602503       1.52448317      18.75627335       0.00053375      -0.00108775      -0.00169646      -4.48261609 F F F      -0.64183110       0.24436922       0.01414200
Ge      46.07177960       2.87971727      20.24761947       0.00158230       0.00099277      -0.00048644      -4.48516147 F F F       0.94678246      -0.17206725       0.06658035
Ge       1.58079972       4.28503760      21.65975036      -0.00242973      -0.00037781      -0.00341589      -4.47339688 F F F      -0.76594961       0.44853028      -0.66248911
Ge       2.84487252      46.15229038      20.14607550      -0.00204628       0.00042910      -0.00229951      -4.50006876 F F F       0.24923576      -0.04766179       0.81537736
Ge       4.35478851       1.40893310      21.64903151      -0.00146797      -0.00094724      -0.00032444      -4.50325229 F F F      -0.28856580      -0.44262274       0.07069751
Ge       2.96465713       2.99118869      17.25453262       0.00017300      -0.00064127      -0.00279518      -4.46855579 F F F      -0.07309080      -0.85567771       0.24778166
Ge       4.42592203       4.35922098      18.67904820       0.00438400      -0.00016363      -0.00141026      -4.49774437 F F F       0.34303483       0.23854382       0.11417108
Ge      46.04264682      46.01226773      23.05413309       0.00065504      -0.00102619       0.00213711      -4.49499511 F F F       0.12948597       0.01062335       0.52191866
Ge       1.33522853       1.30451882      24.42269743       0.00130246      -0.00246299      -0.00054495      -4.49372388 F F F      -0.13866970       0.86357638       0.17584796
Ge       0.00248117       2.89493063      25.97292891      -0.00419194      -0.00122152       0.00262920      -4.48196287 F F F       0.65071425      -0.48014401       0.14994440
Ge       1.53401343       4.46913867      27.35107547       0.00063615       0.00119919       0.00172708      -4.47441631 F F F      -0.70215213      -0.84462973       0.35846842
Ge       2.86633357       0.08224612      25.89472438       0.00021776       0.00374757      -0.00300501      -4.43689631 F F F      -0.38397019      -0.02395246       1.00392732
Ge       4.33922523       1.42074640      27.46094631       0.00075771      -0.00262819      -0.00094858      -4.51241031 F F F      -0.00436695       0.41284616      -0.24358325
Ge       2.86758439       2.81828250      23.09657167      -0.00148002       0.00038392       0.00109976      -4.47641044 F F F       0.31482518      -0.23898357       0.32769165
Ge       4.29211823       4.36581164      24.53597248       0.00072895       0.00107812      -0.00203139      -4.49966225 F F F      -0.09180385       0.24699077      -0.08318649
Ge      46.17503361      46.18307763      28.94948782      -0.00072744       0.00330032       0.00083693      -4.50197581 F F F       0.31525719       0.38474863      -0.29402628
Ge       1.48737408       1.52490516      30.29383035      -0.00358893       0.00198800      -0.00092230      -4.50371750 F F F      -0.44553260       0.08949519      -0.16265997
Ge       0.03316867       2.86614346      31.84298105       0.00086273       0.00143392      -0.00060395      -4.50806329 F F F       0.23694654       0.34244657       0.00160587
Ge       1.46466265       4.47291830      33.22870314       0.00287039       0.00218064      -0.00313997      -4.51479448 F F F      -0.48298724      -0.51577154       0.43840875
Ge       2.79157557       0.04351098      31.76278472      -0.00013903       0.00322132       0.00069916      -4.46050736 F F F       1.03635150       0.36204236      -0.06321372
Ge       4.33335775       1.45139462      33.23693856      -0.00260617      -0.00026463      -0.00182288      -4.49855932 F F F      -0.41062555      -0.27060457       0.39025058
Ge       2.90041499       2.98910606      28.82239773       0.00019991       0.00072703       0.00013623      -4.51238998 F F F       0.07315037      -0.36151506      -0.11657746
Ge       4.34035137       4.34172466      30.31248027      -0.00083534      -0.00302410      -0.00000555      -4.49498322 F F F       0.29691374      -0.17169580       0.24426727
Ge       0.11051677       0.00559848      34.64123375      -0.00008537       0.00019485      -0.00135220      -4.50268570 F F F      -0.21451081       0.19430385       0.83453356
Ge       1.71669803       1.46011431      36.09995414       0.00387949      -0.00105176      -0.00066644      -4.36441822 F F F      -1.49416857      -1.14226274       0.03076802
Ge       0.17115675       2.64872343      37.55647464      -0.00054567       0.00149443      -0.00039516      -4.47683869 F F F      -0.18032634       1.14959633       0.07389031
Ge       1.49112039       4.41674294      38.86869953       0.00359558      -0.00039190      -0.00090235      -4.40961182 F F F      -0.53720717      -1.18732722       1.48834863
Ge       2.90170891      46.16783449      37.63498320       0.00142767      -0.00248371       0.00278565      -4.41568488 F F F       0.36777420      -0.42722547      -0.37141465
Ge       4.25344088       1.36191580      39.07969468      -0.00119894       0.00219172       0.00220019      -4.49914721 F F F       0.49707942       0.38734243       0.29536659
Ge       2.88182465       2.96840179      34.75800743       0.00096816      -0.00151763      -0.00152738      -4.40166810 F F F       0.59510484       0.57649080      -1.42953841
Ge       4.19496522       4.42322434      36.21978555       0.00105453      -0.00118690      -0.00128729      -4.49682570 F F F       0.64523552      -0.13621690      -0.00349966
Ge       0.14738758      46.08252746      40.47945165       0.00149848       0.00182728      -0.00213987      -4.49006847 F F F      -0.29742602      -0.51065744      -0.15361790
Ge       1.40045649       1.33093695      41.99467006       0.00043610      -0.00381615       0.00024047      -4.48048615 F F F      -0.08497657       0.42291651       0.30254841
Ge      46.11285943       2.84082973      43.40529786      -0.00134225      -0.00266549      -0.00142049      -4.51167742 F F F       0.45665678      -0.10134302      -0.22316935
Ge       1.47973699       4.28339298      44.75727338       0.00176767       0.00356028      -0.00077327      -4.47063610 F F F      -0.32097717      -0.77424132       0.23769147
Ge       2.79787210      46.03028326      43.41792571      -0.00031029      -0.00108002      -0.00158345      -4.48346789 F F F       0.81220616       0.70040257      -0.14946616
Ge       4.36579961       1.31746565      44.84993024      -0.00094840       0.00071450      -0.00290070      -4.48231393 F F F      -0.25328549      -0.05563905      -0.57097808
Ge       2.79494082       2.77239726      40.54928148       0.00418553       0.00067060      -0.00203253      -4.47925493 F F F       0.01763879       0.61652417      -0.72277695
Ge       4.26905182       4.24154202      41.91348495       0.00045473       0.00010995       0.00040203      -4.49734434 F F F      -0.11931240       0.16902592       0.06287499
Ge       0.05935118       5.72519104      46.11964972      -0.00012717      -0.00086339      -0.00063238      -4.47002501 F F F      -0.46112429       0.06651554       0.18341193
Ge       1.43490581       7.05764354       1.45150475      -0.00128383       0.00089607       0.00007170      -4.47858552 F F F      -0.00252691       1.01384480       0.31088913
Ge       0.06192274       8.63940199       3.01941394      -0.00007874      -0.00110910       0.00114142      -4.46561120 F F F      -0.07596264      -1.17586160      -0.70695980
Ge       1.58297037       9.93236353       4.34817700       0.00034603      -0.00094615       0.00051749      -4.45522371 F F F      -0.05010626       1.03059383       0.32987833
Ge       2.89971637       5.70501966       2.92280013      -0.00377227      -0.00101291       0.00094434      -4.50324381 F F F       0.12633012      -0.08534710       0.49219135
Ge       4.36763834       7.24372378       4.44018005      -0.00060562       0.00043514       0.00152673      -4.45346641 F F F      -0.66216685      -0.37356866      -0.60874960
Ge       2.75664019       8.63520970      46.12679303       0.00013269      -0.00139670       0.00019382      -4.47739639 F F F       0.40279839      -0.35938122       0.62835004
Ge       4.27376507      10.06846914       1.35785234      -0.00033886      -0.00015318      -0.00025672      -4.47412367 F F F       0.41278435       0.10250192       0.64245527
Ge      46.16682026       5.62225849       5.81114376      -0.00068945      -0.00271952       0.00218572      -4.49962956 F F F      -0.10100794       0.29206566       0.48577571
Ge       1.49147664       7.17928832       7.14599391      -0.00097878      -0.00229389      -0.00385331      -4.43800116 F F F      -0.05785520      -0.94602467      -0.07987478
Ge       0.08540922       8.57286959       8.48683291       0.00005879       0.00257008       0.00070506      -4.47832891 F F F      -0.62278019       0.47670411       1.18949295
Ge       1.40850605      10.14491174      10.02283108       0.00227191      -0.00138087       0.00363058      -4.51268156 F F F      -0.15407213      -0.46062340      -0.02356860
Ge       2.74804202       5.71152918       8.71083806       0.00127369       0.00056004      -0.00274189      -4.45722222 F F F       0.98663028      -0.36028879      -0.32545090
Ge       4.25316665       7.19801191      10.11889527      -0.00024675      -0.00106389      -0.00113305      -4.49349916 F F F       0.03211895       0.17310005      -0.24435195
Ge       2.98578301       8.65437444       5.90953694      -0.00022594      -0.00001422      -0.00149128      -4.45826488 F F F       0.01222834      -0.03523170      -0.47930386
Ge       4.39236251      10.19726970       7.19110599       0.00153692      -0.00043297       0.00015802      -4.45423026 F F F      -0.22974465      -0.36363906       0.41697954
Ge      46.04020359       5.75401354      11.51351372       0.00050706      -0.00061323       0.00254242      -4.47724812 F F F       0.82989212      -0.43857286      -0.27487294
Ge       1.24315261       7.24611568      12.93351666       0.00056759      -0.00059142       0.00271491      -4.50024156 F F F       0.41913674       0.27747110       0.17163830
Ge      45.91076618       8.66898542      14.34954319       0.00131862      -0.00004702       0.00322227      -4.46886616 F F F       0.78063685      -0.25207315       0.68792470
Ge       1.41037717      10.16009228      15.67647666       0.00123787       0.00007002      -0.00139951      -4.46031917 F F F      -0.07042805      -0.47281392       0.67618235
Ge       2.78539045       5.90650125      14.42885737       0.00047062      -0.00069482       0.00128296      -4.49546949 F F F      -0.47529045      -0.61469226      -0.08317798
Ge       4.23187063       7.29188591      15.84978270      -0.00154025       0.00205416      -0.00126214      -4.48485535 F F F       0.15585753       0.22923833       0.24276485
Ge       2.81461655       8.72371839      11.51254272       0.00093331       0.00021326      -0.00177129      -4.50203566 F F F      -0.02353897      -0.30111525       0.29523026
Ge       4.33199642      10.13512974      12.97501031       0.00027679       0.00008198       0.00113517      -4.45387102 F F F      -0.35305580       0.79081869      -0.69408111
Ge       0.04563130       5.73497144      17.44124420      -0.00021667      -0.00092217       0.00076464      -4.48001850 F F F      -0.36218844       0.23479087       0.25286174
Ge       1.33221358       7.34505619      18.93707144       0.00150816       0.00040287      -0.00190167      -4.49140351 F F F       0.79650820      -0.48546943      -0.61336655
Ge      46.17224825       8.79537867      20.41167067       0.00154822      -0.00030300       0.00369098      -4.44634704 F F F      -0.39525457      -0.62898619      -0.59388316
Ge       1.53414455      10.07721862      21.73164138       0.00200007      -0.00130835       0.00209259      -4.44879984 F F F       0.24303605       0.44985445       0.03217353
Ge       3.00753197       5.78082871      20.11487774      -0.00289459       0.00017698      -0.00031717      -4.48052661 F F F      -1.11704746      -0.23792988       0.17724297
Ge       4.34242701       7.16366445      21.59867000      -0.00004198       0.00125059       0.00327878      -4.41759134 F F F      -0.06982812       0.09759306       0.19024038
Ge       2.86157303       8.76006097      17.39522066      -0.00051242      -0.00120741      -0.00101869      -4.44623029 F F F      -0.96588721      -0.54327808      -0.95444613
Ge       4.30931668      10.11587798      18.73386183       0.00248275      -0.00249862       0.00047969      -4.42506449 F F F       0.88969366       0.39196471      -0.50715056
Ge       0.15041441       5.81005515      23.10776720      -0.00081809      -0.00040736       0.00024914      -4.49864947 F F F      -0.49000804      -0.55958774       0.10159847
Ge       1.58811114       7.20671410      24.58931740      -0.00053255      -0.00142361      -0.00253566      -4.45489180 F F F      -0.22990070       0.73633518      -0.90695360
Ge       0.10172420       8.54313597      26.01987988       0.00135264       0.00021823       0.00206412      -4.46293877 F F F      -0.35868149       0.77796530      -0.69920254
Ge       1.57870436      10.03492838      27.29766306       0.00072789       0.00009202       0.00045464      -4.50299855 F F F       0.31592283       0.08868570       0.57044386
Ge       2.96588141       5.92756605      26.05787239       0.00114735      -0.00364570       0.00040903      -4.42947023 F F F       0.85835874      -0.62579226      -0.08454857
Ge       4.45993503       7.23306821      27.59306420      -0.00008917       0.00244697       0.00123899      -4.49460563 F F F       0.61137577      -0.39448104      -0.31756478
Ge       3.07612691       8.68853131      23.06929723       0.00083591      -0.00164672       0.00398864      -4.50551803 F F F      -0.51156492      -0.33017489       0.58874761
Ge       4.48046103      10.13075046      24.52475188       0.00176821       0.00161099      -0.00384988      -4.48006840 F F F      -0.09833429       0.45682946       0.40685686
Ge       0.02889340       5.69643831      28.90659646      -0.00071602       0.00302142       0.00019925      -4.50035215 F F F       0.10844139       0.21412413       0.39006328
Ge       1.53337024       7.23376578      30.32400047       0.00148595       0.00049992      -0.00011118      -4.48205715 F F F      -1.09231006      -0.34863943       0.28313531
Ge      46.05603938       8.65918060      31.76697292      -0.00246560       0.00088638       0.00295773      -4.49918498 F F F       0.66349309      -0.13281538      -0.08836383
Ge       1.41818832       9.99084593      33.24990641       0.00127968      -0.00034255       0.00036487      -4.51003808 F F F       0.02251936       0.01880059       0.25313993
Ge       2.95761968       5.77009873      31.74865036       0.00168315       0.00105018       0.00515548      -4.48064246 F F F      -0.39213988       0.12998873      -0.02600275
Ge       4.34739121       7.22335550      33.14649666      -0.00348102      -0.00016289      -0.00077751      -4.46931911 F F F       0.21537584      -0.40939839       0.38206016
Ge       2.98406709       8.57790254      28.91686556      -0.00242526       0.00348078      -0.00356569      -4.44648282 F F F      -0.68388484       0.88449117      -0.18666848
Ge       4.21036428       9.99917998      30.51864235       0.00221514       0.00237732       0.00315763      -4.44416218 F F F       0.55209225      -0.10865988      -0.52082892
Ge      46.07535424       5.83737698      34.73884979       0.00144090       0.00156700      -0.00454009      -4.47369155 F F F       0.97771363       0.19272513      -0.26445381
Ge       1.49437649       7.19157374      36.31705961      -0.00382433       0.00046816      -0.00071838      -4.46014618 F F F      -0.38878405       0.25248033      -1.39575585
Ge       0.05121542       8.66116276      37.64236489      -0.00347942       0.00013402      -0.00521039      -4.47428404 F F F      -0.28493339       0.17892877       0.05627869
Ge       1.57224495      10.07057474      39.04016877      -0.00090751       0.00139422      -0.00091616      -4.49962228 F F F      -0.60542287       0.33072589       0.24044001
Ge       2.96911623       5.93503686      37.75523562      -0.00185697      -0.00247321      -0.00040635      -4.35830254 F F F       0.24551748      -0.39867734      -0.59925443
Ge       4.48422541       7.26632043      39.09551632      -0.00135000      -0.00172933      -0.00026802      -4.45917441 F F F       0.58278431      -0.13410722       0.12353820
Ge       2.95005456       8.53521086      34.66487143      -0.00104972       0.00174491       0.00157457      -4.46642698 F F F      -1.13887961      -0.18384630       0.01165321
Ge       4.21217090       9.99321723      36.09801628       0.00197770      -0.00115947       0.00206343      -4.41041023 F F F       0.22722670       1.17790179       0.64669684
Ge       0.02318314       5.79803776      40.45715512      -0.00173594      -0.00107492      -0.00031963      -4.49807915 F F F      -0.10568714      -0.42097489      -0.19180428
Ge       1.47982505       7.29704251      41.85878175      -0.00080170       0.00091988      -0.00168268      -4.49757423 F F F      -0.48041088      -0.20410920       0.08954833
Ge       0.02747303       8.70084740      43.37244227      -0.00378772      -0.00047283       0.00074180      -4.49185909 F F F      -0.42984938      -0.11748310      -0.90341327
Ge       1.41253075      10.15080442      44.79044659      -0.00235642      -0.00205523      -0.00138052      -4.47941512 F F F      -0.05781784       0.47518344      -0.20676062
Ge       2.72822882       5.68900536      43.26202188      -0.00185889      -0.00090133      -0.00385203      -4.45521311 F F F       0.79410236       0.37902548      -0.39321994
Ge       4.14776283       7.20823098      44.62670646       0.00238647      -0.00087338       0.00237646      -4.50938593 F F F       0.64424524       0.01261298       0.18456882
Ge       3.00112722       8.61402583      40.44106056       0.00251028       0.00247617      -0.00068849      -4.48478253 F F F      -0.08583717       0.52672531       0.52241000
Ge       4.40342806      10.11159087      41.92629961      -0.00024509      -0.00182232      -0.00071993      -4.49434676 F F F      -0.60556648      -0.15308792       0.08335440
Ge      46.17475286      11.62923032       0.00888028      -0.00150087      -0.00214076      -0.00174941      -4.49472249 F F F      -0.04108100      -0.20570732       0.02230696
Ge       1.51384051      12.93609693       1.46965544       0.00187450       0.00472102      -0.00223510      -4.48718923 F F F       0.03011060       0.19258601      -0.00502299
Ge      46.11599603      14.28559757       2.88844630      -0.00104991       0.00096011       0.00095020      -4.49493571 F F F       0.37275779       0.98910416      -0.41073485
Ge       1.42103215      15.85951699       4.26673129      -0.00021605       0.00119137       0.00087958      -4.47777806 F F F      -0.85468748      -0.38504810       0.40750339
Ge       2.97630116      11.52425078       2.99584448       0.00434020       0.00375140      -0.00141540      -4.49605102 F F F      -0.13483113      -0.20158090      -0.74740038
Ge       4.40427642      13.07632973       4.32353103      -0.00046056       0.00074423       0.00339360      -4.47544831 F F F      -0.43393738      -0.51744412       0.61924674
Ge       2.90122707      14.44676752      46.11690306       0.00015401       0.00315699      -0.00070709      -4.50818404 F F F       0.15315694      -0.10866406       0.20313350
Ge       4.38357890      15.80785747       1.42701141       0.00131783      -0.00192559       0.00130311      -4.51596003 F F F      -0.50413144       0.02174348       0.22967033
Ge       0.01689242      11.47072090       5.63298650      -0.00049942       0.00157929      -0.00062777      -4.50812423 F F F       0.27636972       0.30995469       0.00670936
Ge       1.47353356      12.86000839       7.14197451       0.00296909       0.00230810       0.00117280      -4.50009314 F F F      -0.17343068       0.81789860      -0.35169401
Ge       0.03603315      14.32519825       8.62475703       0.00023466      -0.00133439      -0.00048056      -4.50481147 F F F      -0.25060028       0.52717009      -0.20634634
Ge       1.37921409      15.94388740      10.03399541       0.00011567       0.00221041       0.00285454      -4.48667356 F F F       0.36214772      -0.43430168      -0.45110618
Ge       2.88900558      11.52116828       8.61312274       0.00016519      -0.00312648       0.00238578      -4.48039193 F F F       0.16405563       0.11711020       0.12617129
Ge       4.35639070      13.00492213       9.97579355      -0.00280081       0.00405948       0.00002524      -4.47850787 F F F      -0.11844471       0.25688491      -0.30308480
Ge       2.90029309      14.50036638       5.72950929       0.00075795      -0.00327475       0.00064585      -4.50651781 F F F      -0.28268197      -0.61561929       0.09809832
Ge       4.38180877      15.89210302       7.11236599       0.00030950      -0.00127816       0.00021055      -4.46719558 F F F      -0.40852620       0.17845673       0.25243278
Ge      46.14986378      11.58595715      11.49020426       0.00075379       0.00088144       0.00132190      -4.48267564 F F F      -0.01812025      -0.48237704       0.16826814
Ge       1.43470902      13.08270124      12.79033342       0.00013155      -0.00472175       0.00207197      -4.49488914 F F F       0.24364968      -0.14874754       0.68006969
Ge       0.05043213      14.47423932      14.37547660      -0.00083278      -0.00313452      -0.00130575      -4.42960681 F F F      -1.04623648      -0.87051303      -0.12806170
Ge       1.23122395      15.83721727      15.95091770      -0.00105065       0.00100980       0.00096551      -4.42888156 F F F       1.32398634       0.54036212      -0.20565430
Ge       2.86188262      11.66055710      14.32811729       0.00080915      -0.00061838      -0.00063110      -4.50013656 F F F       0.16531401      -0.07618699      -0.17117485
Ge       4.43581701      13.06968384      15.72213208       0.00200121      -0.00060395       0.00078942      -4.47476623 F F F      -0.25170966      -0.71120300      -0.05322936
Ge       2.89692409      14.43774880      11.32342969       0.00170816      -0.00178799      -0.00026383      -4.48724224 F F F       0.09433407       0.81365797       0.64325371
Ge       4.36559593      16.01674778      12.82669548      -0.00169823      -0.00075617      -0.00324792      -4.46268573 F F F      -0.91521072      -0.62408900       0.15108209
Ge       0.16631318      11.60864061      17.32397331       0.00069468       0.00338024       0.00020313      -4.47882239 F F F      -0.65469873      -0.48912396      -0.41969572
Ge       1.49007363      13.07802360      18.73070058      -0.00039326       0.00168821      -0.00116208      -4.44858543 F F F       0.11273997       0.08069755      -0.14064905
Ge      46.12239915      14.27405978      20.27664352      -0.00078535       0.00305823       0.00119018      -4.49318797 F F F       0.25852077       0.65787622       0.21831496
Ge       1.52721143      15.87883672      21.68007558       0.00229270      -0.00226191       0.00179773      -4.42742921 F F F      -1.16245292      -1.08384224       0.23271070
Ge       2.77783010      11.44762927      20.03341908       0.00011863      -0.00014922      -0.00095665      -4.45351305 F F F       0.23718184       0.61829004       0.97352159
Ge       4.26403291      12.99509002      21.41832019       0.00081119      -0.00002387      -0.00069820      -4.50019712 F F F       0.01512985      -0.04774076       0.05614432
Ge       2.95754511      14.39193920      17.13112896      -0.00038466       0.00087453       0.00052711      -4.46076937 F F F      -0.82224414       0.46253538       0.63857543
Ge       4.17721773      15.79944145      18.77391037       0.00205771      -0.00134421      -0.00232516      -4.45541614 F F F       0.85798367      -0.36579664      -0.49217873
Ge       0.01027810      11.46553729      23.08919445       0.00213341      -0.00029226      -0.00002587      -4.47588653 F F F       0.22916704       0.32204969       0.43957390
Ge       1.37639019      13.07349077      24.52703600       0.00145534      -0.00220189      -0.00095300      -4.50634297 F F F       0.21431204      -0.26075350       0.23777241
Ge       0.02262059      14.53944967      26.11420892      -0.00122849      -0.00140900       0.00646967      -4.48942935 F F F      -0.25167509      -0.11422678      -0.64655847
Ge       1.42907187      16.07867003      27.40665209       0.00087744      -0.00078917      -0.00014225      -4.46982784 F F F      -0.25254922      -0.47259527       0.62948778
Ge       2.96849797      11.66491448      25.98084883      -0.00084818       0.00030266      -0.00473837      -4.46976111 F F F      -0.40062209      -0.81475149      -0.86551592
Ge       4.29295463      12.87890802      27.59836778      -0.00057303       0.00010785       0.00217320      -4.43896968 F F F      -0.15644393       0.89583132      -0.06125513
Ge       2.92601092      14.38783881      23.05399857      -0.00072654       0.00040985       0.00039742      -4.49250155 F F F       0.15127249       0.07828218       0.14736248
Ge       4.39722775      15.81293151      24.57111010      -0.00078255       0.00103013       0.00141986      -4.48055091 F F F      -0.51257445      -0.52580124       0.18234377
Ge       0.18272854      11.48947829      28.77790536      -0.00219952      -0.00141655      -0.00272169      -4.47133922 F F F       0.03851721       0.25262883       0.18597065
Ge       1.49629067      12.91021105      30.37807593       0.00232884       0.00364395      -0.00087707      -4.45891778 F F F      -0.23929018       0.19524199       0.36093746
Ge       0.04055590      14.54242519      31.79392471       0.00191832      -0.00020490      -0.00449238      -4.46079175 F F F      -0.33736730      -0.81365609      -0.83241910
Ge       1.49384709      15.91283607      33.13977684      -0.00173630      -0.00043741       0.00165420      -4.47525925 F F F       0.41079104       0.39991043       0.73197251
Ge       2.95701066      11.46373782      31.95585050      -0.00028100      -0.00438714      -0.00153352      -4.45106775 F F F      -0.96023075       0.40971365      -0.22819136
Ge       4.36591961      12.96388710      33.26399097      -0.00231530      -0.00059159      -0.00052001      -4.48900652 F F F       0.87320313      -0.09456637       0.14429073
Ge       2.68437033      14.43271635      28.83575279       0.00229377      -0.00163859       0.00028813      -4.45793315 F F F       1.05215739       0.21874150       0.29808234
Ge       4.31769112      15.79073598      30.33986300      -0.00233953       0.00210661       0.00108555      -4.48995854 F F F      -0.21102670       0.37355803      -0.45243558
Ge       0.06731280      11.48746176      34.73926237      -0.00116010       0.00111294      -0.00006552      -4.49856124 F F F      -0.34832017       0.13218934      -0.45465730
Ge       1.45254279      13.05597499      36.06346930      -0.00001010      -0.00448104       0.00056084      -4.48697369 F F F       0.27866212      -0.32773880       0.55532739
Ge       0.04921996      14.47692104      37.54159202      -0.00001355       0.00022423       0.00236368      -4.47419218 F F F      -0.89049928      -0.20454828       0.27453405
Ge       1.35395080      15.89158832      39.09678379      -0.00326287       0.00257313       0.00251861      -4.44751777 F F F       0.20321461       0.63973053      -0.96973462
Ge       2.90130048      11.60799053      37.62452660       0.00090566      -0.00385719      -0.00165627      -4.48795002 F F F      -0.19093200      -0.32053389      -0.85003393
Ge       4.38551779      12.92728039      39.06138659       0.00025877       0.00034024      -0.00168571      -4.49047346 F F F       0.15898751       0.59646561      -0.12427493
Ge       2.95380007      14.42641837      34.65759629       0.00040870       0.00059305      -0.00228410      -4.50733127 F F F      -0.25582255       0.57350436      -0.21501582
Ge       4.34368791      15.92149326      36.14169249       0.00063083      -0.00110608       0.00057099      -4.48077769 F F F      -0.15918555      -0.32780736       0.33702252
Ge       0.06265809      11.48783729      40.55943638      -0.00032240       0.00026561      -0.00315818      -4.49183520 F F F      -0.07124765       0.17810577      -0.25924847
Ge       1.53061412      13.04661775      41.98475628       0.00295955       0.00035329      -0.00019664      -4.47793479 F F F      -0.57756132       0.35734414      -0.92265337
Ge       0.06985365      14.51647551      43.40478921       0.00081873      -0.00000465       0.00090444      -4.48306565 F F F       0.13125032       0.22574688      -0.60222441
Ge       1.48778546      16.03935444      44.79258925       0.00382009       0.00101716       0.00130464      -4.49297675 F F F      -0.24394468      -0.61387128       0.33755851
Ge       2.90003265      11.59840483      43.32647423      -0.00064093       0.00201133      -0.00008404      -4.47279699 F F F       0.48539544      -0.65229374       0.29058737
Ge       4.41461113      13.11391990      44.57249548      -0.00047315       0.00034390      -0.00105219      -4.48921951 F F F      -0.14803035      -0.26790142       0.79315868
Ge       2.87261872      14.49654261      40.34246762       0.00079717       0.00074567       0.00096762      -4.47699082 F F F       0.28832500      -0.69119398       0.86009409
Ge       4.28470396      15.98909378      41.77046867       0.00105373       0.00236221       0.00136109      -4.49419333 F F F       0.64619331      -0.33761752      -0.02010434
Ge      46.14481335      17.33410557       0.10143107       0.00025990       0.00106931      -0.00207003      -4.45556105 F F F       0.46640565       0.62837147      -0.81114860
Ge       1.35231163      18.87873977       1.40931152       0.00082520       0.00177644       0.00115418      -4.49089814 F F F       0.77276682      -0.38987730       0.17268850
Ge      46.02454779      20.22532312       2.83654388       0.00076634      -0.00238935      -0.00132705      -4.44811401 F F F       0.53251143      -0.50898516       0.46818976
Ge       1.47290574      21.52024476       4.16343691       0.00095465      -0.00265215       0.00232391      -4.49156317 F F F      -0.52898370       0.34169941       0.65003136
Ge       2.81499511      17.24138786       2.85073992       0.00231534      -0.00301101      -0.00070475      -4.47601395 F F F       0.43651065       0.67559604      -0.65362985
Ge       4.41411537      18.57460608       4.29239652       0.00099996       0.00306200       0.00143236      -4.46868998 F F F      -0.83492901       0.31776397      -0.32310242
Ge       2.95921672      20.23306615      46.13204434       0.00051105      -0.00094683       0.00129080      -4.48276032 F F F      -0.94666709       0.17133745       0.40582920
Ge       4.33643684      21.63069609       1.47768630       0.00083991       0.00535381       0.00076187      -4.50739243 F F F      -0.22357560       0.30271853      -0.12446134
Ge      46.03621721      17.22934391       5.78625719      -0.00038863       0.00045670      -0.00085555      -4.49808798 F F F       0.58189372       0.30108724      -0.74077018
Ge       1.31813282      18.76660418       7.08077319       0.00057908       0.00177060       0.00089729      -4.47221633 F F F       0.87110221      -0.69986615      -0.02823964
Ge      46.11850591      20.02884598       8.60685342      -0.00209340       0.00280038      -0.00094807      -4.46096933 F F F      -0.59230843       0.26564973       0.09928568
Ge       1.30443554      21.37784737      10.09472126      -0.00217980      -0.00154759       0.00216704      -4.47188730 F F F       0.28344117       0.71312252       0.18736652
Ge       2.89961549      17.31594691       8.55065590       0.00134008       0.00055836       0.00125279      -4.51624195 F F F      -0.38968880       0.52903168       0.02457442
Ge       4.27727215      18.83788719      10.07124999       0.00004462       0.00095271      -0.00155841      -4.46026304 F F F      -0.45474786      -1.09773986       0.23943349
Ge       2.91823477      20.05914658       5.61115220      -0.00085566      -0.00478550       0.00299396      -4.51071905 F F F      -0.47207643      -0.08755652       0.03071815
Ge       4.24209276      21.46617364       7.11718891      -0.00146435      -0.00092073       0.00195739      -4.48809608 F F F       0.51192590       0.04573742       0.00802605
Ge      46.08090838      17.28038926      11.48525007       0.00048078      -0.00177086      -0.00056214      -4.47020670 F F F       0.02138294      -0.44723635       0.58436089
Ge       1.25179577      18.60240452      13.08067772       0.00101816      -0.00050353      -0.00092864      -4.46624787 F F F       0.34133495       1.07920117      -0.58795621
Ge      46.01025654      20.13913525      14.49910496      -0.00009696      -0.00105191      -0.00093643      -4.47264965 F F F       0.38920319      -0.25099526      -0.61223752
Ge       1.38936991      21.54681463      15.70666436      -0.00251351      -0.00046570       0.00198704      -4.48814305 F F F       0.41993392       0.38202809       0.62816802
Ge       2.77173627      17.30594568      14.44727549      -0.00167613       0.00330191      -0.00261282      -4.45395125 F F F       0.46411950      -0.69593142       0.26133150
Ge       4.34126634      18.71405162      15.85253610       0.00047523       0.00338986      -0.00029491      -4.47284658 F F F      -0.65329115      -0.08432532      -0.03012428
Ge       2.82447439      20.16703135      11.58733289      -0.00070750       0.00155515      -0.00102423      -4.46664081 F F F      -0.45027345      -0.74554514       0.31027060
Ge       4.31579952      21.65156753      12.84713721      -0.00695268       0.00031193      -0.00161610      -4.48599535 F F F       0.31233741      -0.36675902       0.47694914
Ge      46.13203668      17.38655372      17.39414352      -0.00225051       0.00330087      -0.00104932      -4.49276380 F F F      -0.53973634      -0.56864257       0.18341191
Ge       1.40353492      18.71511812      18.83964497       0.00035596      -0.00035428      -0.00122348      -4.51158236 F F F       0.62331612       0.06937424      -0.01258055
Ge       0.00271184      20.25089853      20.21412414       0.00132537       0.00391407      -0.00022960      -4.43992761 F F F       0.33482805      -0.27626748       0.31326636
Ge       1.32689593      21.79591732      21.67878010      -0.00018082       0.00221229      -0.00213112      -4.50120322 F F F       0.75023387      -0.06106818      -0.20723098
Ge       2.89893314      17.17500292      20.26975786       0.00436326       0.00192660      -0.00072728      -4.42118518 F F F      -0.08669301       1.45071233      -0.36650369
Ge       4.33529094      18.76283046      21.62862339       0.00197341      -0.00208498       0.00139891      -4.50734497 F F F      -0.14262128      -0.10385789       0.15099039
Ge       2.79436774      20.10557041      17.22675107      -0.00076344      -0.00327624       0.00102337      -4.49688440 F F F      -0.15702619      -0.04696780      -0.00197742
Ge       4.25277214      21.48711272      18.63627518      -0.00261952       0.00105921       0.00048331      -4.50053458 F F F       0.24611847       0.66536767       0.47087206
Ge       0.15711071      17.33671965      23.11947012      -0.00103189      -0.00250818       0.00256887      -4.46670787 F F F      -0.42644777       0.70022487      -0.55293541
Ge       1.72783110      18.77016902      24.46720731       0.00267272      -0.00045617      -0.00262143      -4.49003734 F F F      -0.83350264       0.27268291      -0.00766958
Ge       0.08811094      20.13587390      25.86310022      -0.00000662       0.00278455       0.00043993      -4.49892346 F F F      -0.01686784       0.40731005       0.10744526
Ge       1.44847140      21.64979865      27.41550591       0.00219398       0.00234078       0.00393558      -4.46388874 F F F      -0.30484926       0.10565283      -0.47126102
Ge       2.98141037      17.28793954      25.97714830      -0.00026239       0.00051371       0.00155693      -4.45524137 F F F       0.02414367       0.05026181      -0.29257961
Ge       4.34027375      18.70325763      27.42282995       0.00057547       0.00010420      -0.00365116      -4.48392562 F F F      -0.11225208       0.88712909       0.34112220
Ge       2.99044244      20.38011347      23.05580838      -0.00135130       0.00105100       0.00168740      -4.47834925 F F F      -0.48353475      -0.18959801      -0.31777203
Ge       4.27902800      21.78651790      24.63673222      -0.00189928      -0.00004611      -0.00168200      -4.44503393 F F F      -0.08075275       0.02851991      -0.33104023
Ge      46.13078279      17.45616176      28.92660243       0.00066615      -0.00020308      -0.00089591      -4.48802859 F F F       0.11198638       0.04037555      -0.75886868
Ge       1.42430890      18.82841875      30.33069246      -0.00104811       0.00086486       0.00168674      -4.49186715 F F F       0.67434756       0.13821572      -0.20378262
Ge      46.12859140      20.23877267      31.67390918       0.00161126       0.00133513       0.00128484      -4.47792535 F F F      -0.00060457       0.51088993       0.08029972
Ge       1.25702216      21.68052928      33.22469333       0.00079264      -0.00173900      -0.00020158      -4.51302931 F F F       0.81023935       0.17120640       0.17358275
Ge       2.96820406      17.41595858      31.77713567       0.00006652       0.00483141      -0.00082349      -4.49974945 F F F      -0.08475923      -0.23481093      -0.07056444
Ge       4.29504417      18.90119537      33.32976996      -0.00078425       0.00274945      -0.00058158      -4.50837490 F F F       0.42291883      -0.31987951      -0.25880206
Ge       2.89645381      20.34796988      28.86403575      -0.00390700       0.00325168       0.00476304      -4.47952471 F F F       0.17444933      -1.09037543       0.34972560
Ge       4.22445232      21.65977059      30.53093612       0.00139207      -0.00208370       0.00058410      -4.45103853 F F F      -0.33960971       0.43427361      -0.61423276
Ge       0.00057736      17.38985412      34.55309310       0.00040612       0.00059733       0.00053555      -4.51061656 F F F       0.10850337      -0.11010572       0.25098868
Ge       1.48844973      18.75466809      36.13345280       0.00101353       0.00173294       0.00026901      -4.50273471 F F F      -0.18690278      -0.01820532      -0.24173987
Ge      46.14539654      20.24845483      37.42727591       0.00110269      -0.00070280       0.00133444      -4.46803409 F F F       0.24612387      -0.72996826       1.16212644
Ge       1.29699152      21.63288220      39.06785121      -0.00107334      -0.00254881       0.00029136      -4.49917950 F F F       0.70864928      -0.11094392      -0.35871757
Ge       2.93352322      17.32963358      37.62114432      -0.00179260       0.00194694       0.00240208      -4.51611204 F F F      -0.44650937      -0.08033209       0.41442252
Ge       4.33227379      18.83689436      39.10659676       0.00126615      -0.00280279       0.00198471      -4.49076166 F F F      -0.02610354      -0.55664178      -0.22642867
Ge       2.85173643      20.31377133      34.72312155      -0.00138300       0.00191688      -0.00315039      -4.46177760 F F F      -0.82738849      -0.24937686      -0.55899003
Ge       4.31619562      21.64741261      36.08310044       0.00075963       0.00066780       0.00273221      -4.48226470 F F F       0.02554388       0.30383523       0.96009867
Ge      46.06365843      17.40374757      40.39287980      -0.00051852       0.00024904       0.00063565      -4.46753828 F F F       0.41243067      -0.32961539       1.06571982
Ge       1.35977717      18.78029368      42.01520806      -0.00110522      -0.00029270      -0.00164449      -4.50367732 F F F       0.24636708      -0.15352696      -0.82927166
Ge      46.06027035      20.29348317      43.27615525      -0.00028893      -0.00055576       0.00124546      -4.44568951 F F F       0.42894545      -0.11870247       0.09147281
Ge       1.34550324      21.66236967      44.70577922       0.00342671      -0.00156906       0.00013863      -4.48884508 F F F       0.27002028      -0.14845395       0.57316908
Ge       2.95343833      17.34443824      43.34063249       0.00067524      -0.00273414       0.00071215      -4.48195616 F F F      -0.12740335       0.57365945      -0.02829418
Ge       4.40236854      18.80209547      44.81259484      -0.00067574       0.00102898       0.00279086      -4.46535354 F F F      -0.24755680      -0.77877541      -0.20749324
Ge       2.85635711      20.20912058      40.52976495       0.00092508      -0.00246712      -0.00021070      -4.47156686 F F F      -0.84445597      -0.22572055      -0.33144575
Ge       4.34067873      21.51496673      41.90693597      -0.00362619      -0.00154395       0.00204981      -4.46834179 F F F      -0.18511586       0.56093966       1.00894264
Ge      46.04275200      23.03842591      46.17887413       0.00196765       0.00153589      -0.00001066      -4.51733841 F F F       0.29313894       0.20995891      -0.13233296
Ge       1.25638198      24.56765074       1.39434034       0.00020292       0.00271272      -0.00113363      -4.48808452 F F F      -0.05523075      -0.37025779      -0.17663963
Ge      45.92352189      25.79081691       2.90011232      -0.00158288       0.00189460       0.00093440      -4.44697893 F F F       0.82367584       0.72146585       0.04794296
Ge       1.32019320      27.18569541       4.28442915       0.00170408       0.00153349       0.00067385      -4.46587654 F F F      -0.39022155      -0.40201451       1.13695013
Ge       2.68916407      23.09687245       2.74621509      -0.00365716      -0.00120966       0.00090608      -4.45098399 F F F       0.88778093      -0.31283861       0.06289475
Ge       4.32904689      24.25031137       4.25718624       0.00300042      -0.00023302      -0.00131276      -4.46120993 F F F      -0.10633936       1.17461327      -0.54084052
Ge       2.74149400      25.94626070      46.17289345      -0.00159875       0.00117622      -0.00103621      -4.47050553 F F F       0.93255503      -0.04432424       0.43187900
Ge       4.19607293      27.43817068       1.48579351       0.00331087      -0.00063229      -0.00010097      -4.41372662 F F F       0.65170835      -1.16684106       0.22840855
Ge       0.00865956      23.02125307       5.68924535      -0.00283972      -0.00034426       0.00171438      -4.50727152 F F F       0.21067045      -0.10585156       0.21130070
Ge       1.49263702      24.40355616       7.19794541      -0.00112003       0.00483083       0.00515960      -4.49241965 F F F      -0.17379803      -0.08797158       0.23048440
Ge       0.07843722      26.06747777       8.57525799       0.00190560       0.00382596       0.00028876      -4.46934094 F F F      -0.04799666      -1.12833176      -0.11479341
Ge       1.52563610      27.33215632      10.04235093      -0.00099373       0.00184994       0.00045025      -4.45247589 F F F       0.29405080       0.93664605      -0.29763008
Ge       2.81145405      22.71535498       8.63817789       0.00104607       0.00194877       0.00058660      -4.48194709 F F F      -0.13753948       1.16368212      -0.04353134
Ge       4.37118406      24.31998403       9.91759334      -0.00376954      -0.00205057       0.00133886      -4.49511852 F F F      -0.68376073      -0.03665650       0.29787914
Ge       2.95794680      25.79363668       5.73844002      -0.00060398       0.00012008      -0.00040342      -4.49849008 F F F      -0.32393890      -0.14026709      -0.48169669
Ge       4.42240982      27.22991473       7.10271059      -0.00270961       0.00228752      -0.00154692      -4.45012027 F F F      -0.35272257       0.62447169      -0.24147808
Ge      46.16832725      22.98247897      11.53649251       0.00016428      -0.00057726       0.00093585      -4.47066816 F F F       0.78461571       0.01906971       0.26087818
Ge       1.44011873      24.54881303      12.93985510       0.00085738      -0.00152633      -0.00258536      -4.50387789 F F F       0.12193547      -0.76896562      -0.47158582
Ge       0.00000233      25.94915961      14.34953857      -0.00038108       0.00050186      -0.00250345      -4.44498404 F F F       0.52052090       0.22056822       0.04142842
Ge       1.52642957      27.34759450      15.72159722      -0.00244417       0.00188383      -0.00247656      -4.49081532 F F F      -0.51102108       0.12596469       0.75783564
Ge       2.88214554      23.02251132      14.31322349       0.00006925      -0.00168681       0.00231569      -4.51092436 F F F       0.02958666       0.48063539       0.26879505
Ge       4.36551028      24.52368732      15.76062102       0.00036485       0.00250467      -0.00119327      -4.49053895 F F F      -0.33724463      -1.10895029       0.48379325
Ge       2.89441770      25.80530198      11.33933927       0.00045979      -0.00070282      -0.00079513      -4.47220532 F F F       0.44556469       0.00518306       0.76289540
Ge       4.26375612      27.30733438      12.98810227       0.00011985       0.00000761      -0.00350175      -4.47890416 F F F      -0.52276871      -0.23739729       0.15638706
Ge       0.00632028      22.97747614      17.24661723      -0.00031008      -0.00072207      -0.00052697      -4.49459991 F F F       0.02393701       0.09140360       0.51692872
Ge       1.37359413      24.54564268      18.72431048       0.00199311       0.00093915      -0.00111503      -4.48197134 F F F       0.03097122      -0.02466471      -0.40637133
Ge       0.04491472      25.91479328      20.37792671      -0.00018829       0.00004166       0.00054010      -4.48183254 F F F      -0.50387194       0.06933953      -0.69943463
Ge       1.41869052      27.45144558      21.64771041       0.00000362      -0.00068362       0.00078787      -4.48531378 F F F       0.60616017       0.18994440       0.54647827
Ge       2.88581469      23.17323562      20.06680241       0.00056657       0.00105342      -0.00068572      -4.44977696 F F F      -0.22539871      -0.98824466       0.38788985
Ge       4.25882944      24.48261788      21.63958001      -0.00122299       0.00229514       0.00116184      -4.48853087 F F F       0.51194572       0.13276415       0.21247759
Ge       2.88671818      25.89427405      17.19118662      -0.00056609      -0.00109385      -0.00184438      -4.50592444 F F F      -0.09481656      -0.02097086       0.28540057
Ge       4.34680887      27.30203238      18.65082727      -0.00165237      -0.00247565       0.00058969      -4.46602218 F F F       0.10255524       0.08203537      -0.21661834
Ge      46.14144395      23.25234251      23.20429408       0.00102326      -0.00181164      -0.00209261      -4.45454552 F F F       0.35982849      -0.96529963       0.23361852
Ge       1.53181779      24.67744035      24.48917293      -0.00006438       0.00158267      -0.00150618      -4.46891984 F F F      -0.00458812      -0.66820163       0.81698867
Ge       0.14213397      25.95349071      26.08642654      -0.00147851      -0.00163674       0.00113141      -4.49952021 F F F      -0.14010012       0.59457336      -0.30842851
Ge       1.60864348      27.32231680      27.58709285       0.00132285      -0.00325367       0.00216003      -4.53037976 F F F      -0.35611452       0.31697002      -0.13628842
Ge       2.91166103      23.21090028      26.13912695      -0.00245684       0.00247853      -0.00266754      -4.50269101 F F F      -0.25127198       0.16099783      -0.66383898
Ge       4.53585745      24.49972216      27.51878923       0.00101408       0.00262035      -0.00010490      -4.49148045 F F F      -0.10169313      -0.31270127       0.16836123
Ge       2.99230971      26.06645420      23.13840429       0.00072066       0.00265039       0.00195794      -4.47869382 F F F      -0.32904056       0.09886973      -0.64583121
Ge       4.31326002      27.45540815      24.68917438      -0.00317909      -0.00037586      -0.00259326      -4.47346630 F F F       0.58706932       0.06324913      -0.42662149
Ge       0.03150345      23.17103942      28.74698968       0.00625443       0.00084009      -0.00212277      -4.51111940 F F F      -0.11888406      -0.14148237       0.63189015
Ge       1.41934925      24.67280304      30.25443645      -0.00128844       0.00089045       0.00024830      -4.46759301 F F F       0.45022735      -1.03922107       0.01264316
Ge       0.00216007      26.05162635      31.62732175       0.00088436      -0.00368066      -0.00016601      -4.46792297 F F F      -0.22776466       0.76071591       0.85012425
Ge       1.41351749      27.44319433      33.37919256       0.00123004      -0.00085418       0.00038523      -4.47391450 F F F       0.22510073      -0.25347461      -1.05975910
Ge       2.80260651      23.22692407      31.86553752       0.00048383       0.00296863      -0.00129083      -4.49541333 F F F      -0.81279921      -0.60115556      -0.49268625
Ge       4.27777172      24.63054632      33.15088695      -0.00008679      -0.00168038      -0.00101056      -4.41784524 F F F      -0.02099138      -0.46374717       1.40461775
Ge       3.10331060      25.87399585      28.94368925       0.00004806       0.00108510       0.00058733      -4.42887268 F F F      -0.51993830       0.34128556      -0.25967868
Ge       4.38482891      27.39867712      30.31102123      -0.00185328       0.00149431       0.00109401      -4.47394410 F F F       0.22904355       0.73236001       0.68412461
Ge      46.05542345      23.09289107      34.73059787      -0.00127483      -0.00023815       0.00134744      -4.47952355 F F F       0.47425625       0.57599774      -0.48112666
Ge       1.36922497      24.56592594      36.17486498      -0.00038513      -0.00032174      -0.00068432      -4.50045089 F F F       0.57262051      -0.57443780      -0.40413393
Ge      46.11603923      26.08054488      37.42540370      -0.00085419       0.00082375      -0.00237287      -4.45540255 F F F      -0.15712090      -0.27877649       0.76799313
Ge       1.36484862      27.48280536      38.86073739      -0.00295931      -0.00306240       0.00007959      -4.49363946 F F F       0.28589779       0.31249277       0.21337624
Ge       2.85433988      23.06263450      37.63806462       0.00120406       0.00234831       0.00178868      -4.50007765 F F F      -0.24205029      -0.02417684      -0.23297629
Ge       4.33312930      24.45075751      39.07397571       0.00030541       0.00033845      -0.00196685      -4.49780993 F F F       0.05854561      -0.04607356       0.21784893
Ge       2.92061518      25.98333353      34.72664812      -0.00194391       0.00078915       0.00026557      -4.48927028 F F F      -0.52904933      -0.30686775      -0.14086581
Ge       4.45772858      27.27269962      36.10828369       0.00037732       0.00316674       0.00038579      -4.47229735 F F F       0.41517374       0.49118765      -0.09516180
Ge      46.09257298      23.05821810      40.50708362      -0.00052837       0.00258812      -0.00125538      -4.49255180 F F F      -0.08917987       0.46519367      -0.04485572
Ge       1.30966152      24.56606901      41.94842704       0.00302025       0.00180667      -0.00272499      -4.50371961 F F F       0.36179983      -0.28030806      -0.23886411
Ge      45.96597596      25.92980888      43.37161099      -0.00154583      -0.00167996      -0.00089152      -4.50856097 F F F       0.02230297       0.26282689      -0.34582451
Ge       1.32273129      27.28570913      44.77350427       0.00200399      -0.00287363      -0.00230105      -4.45130682 F F F      -0.27964258       0.23659925      -0.35338984
Ge       2.83251392      23.07843018      43.37994147      -0.00053417       0.00007321       0.00186615      -4.47348688 F F F       0.13285972       0.07358317      -0.88976300
Ge       4.27094609      24.56231416      44.70946121      -0.00114225       0.00009858      -0.00041630      -4.50081376 F F F       0.40390496       0.08537295       0.13073921
Ge       2.72781169      25.96987356      40.35017947       0.00239553      -0.00046437      -0.00091161      -4.48104225 F F F       0.46245399      -0.01069722       0.39749596
Ge       4.31399068      27.35615272      41.87955627      -0.00156025      -0.00118322      -0.00090161      -4.49487104 F F F      -0.34275873      -0.14936980      -0.19729158
Ge      46.17799061      28.71029879       0.07058562       0.00013436       0.00127775      -0.00087699      -4.49666246 F F F      -0.14135926       0.60613556       0.37635696
Ge       1.42427754      30.31522643       1.48055110       0.00182890       0.00079567       0.00296706      -4.48637610 F F F      -0.40131234      -0.93414508       0.47993359
Ge      46.12853351      31.61360735       3.08298800      -0.00129988      -0.00132383       0.00171945      -4.44299596 F F F       0.68410160       0.61263376      -1.12559701
Ge       1.51897153      33.03101145       4.36514793       0.00198232       0.00022716       0.00067555      -4.49539512 F F F       0.13943041       0.20677222      -0.29354281
Ge       2.68589669      28.63917725       3.01055925      -0.00363565      -0.00237029      -0.00020097      -4.40609465 F F F       0.54197114       1.32610620      -0.94741341
Ge       4.18104420      30.16867699       4.33565273       0.00033209       0.00031210      -0.00118343      -4.49390935 F F F       0.65274020      -0.15998931      -0.19994240
Ge       2.88817373      31.64843079       0.01867428       0.00087897       0.00109319       0.00111723      -4.50980027 F F F       0.03809466       0.14140693      -0.21005965
Ge       4.33578316      33.06591308       1.45016895       0.00109901       0.00352040       0.00268352      -4.48871068 F F F       0.45035208       0.13042025      -0.44310992
Ge       0.01621636      28.74341897       5.88803600       0.00101529       0.00078681      -0.00089664      -4.51441440 F F F       0.09822849      -0.08213116      -0.49480418
Ge       1.48742661      30.26754214       7.23727887       0.00180741       0.00050820       0.00159483      -4.44479700 F F F      -0.33074700      -1.14265572       0.55422190
Ge       0.03169321      31.62586130       8.69362958       0.00092425      -0.00103341       0.00053680      -4.49167355 F F F      -0.20868863       0.26143986      -0.07276879
Ge       1.48761866      33.00403451      10.11649411       0.00218457      -0.00087709       0.00131482      -4.48965967 F F F      -0.22297010       0.84306435      -0.07543189
Ge       3.08464953      28.76664740       8.54144399       0.00138469       0.00096385      -0.00123547      -4.50756718 F F F      -0.70824630       0.22430240       0.53560275
Ge       4.37813626      30.28189513      10.14635823       0.00163561      -0.00289128       0.00355167      -4.46713067 F F F      -0.47752812      -0.00217166      -0.51347529
Ge       2.84925772      31.59651039       5.84094688      -0.00033191       0.00161983       0.00345887      -4.43962869 F F F       0.97698100       0.66552857      -0.21180505
Ge       4.46409594      32.96004539       7.26756714      -0.00240417      -0.00158135       0.00073496      -4.50019726 F F F      -0.68745111       0.58304334      -0.23806762
Ge       0.03339964      28.76472644      11.47205717      -0.00160798      -0.00015031      -0.00067406      -4.51644147 F F F      -0.09178249      -0.02060124       0.65352734
Ge       1.47927157      30.25887233      12.97662232      -0.00044378       0.00135716      -0.00228757      -4.49578684 F F F      -0.51808531      -0.36364634      -0.12450242
Ge       0.07898410      31.66936168      14.48426124       0.00070322       0.00181697       0.00156546      -4.49972194 F F F      -0.02487024       0.26873975      -0.56766838
Ge       1.56275690      33.04752346      15.89960845      -0.00084234       0.00033553      -0.00028611      -4.48546032 F F F       0.12405356       0.40589685      -0.10044739
Ge       2.89724145      28.91750093      14.47803620       0.00154230       0.00117734      -0.00025581      -4.46178007 F F F       0.52911425      -0.32626963      -0.61754710
Ge       4.46139128      30.37834074      15.74921550       0.00175340       0.00019401       0.00045944      -4.47666364 F F F      -0.01522612      -0.81600824       0.39445926
Ge       2.87707337      31.69658919      11.58713483      -0.00238528      -0.00071487      -0.00174471      -4.47749904 F F F       0.44513143      -0.19535032       0.01138290
Ge       4.21502290      33.21025013      13.03880100       0.00006987      -0.00020807      -0.00037804      -4.49914819 F F F       0.07649912      -0.14910592      -0.20322671
Ge       0.09166424      28.69727135      17.34250934       0.00144822       0.00135881      -0.00148988      -4.50123075 F F F       0.33957371       0.16153890      -0.40891752
Ge       1.64805011      30.21915982      18.59856134      -0.00025943       0.00014011      -0.00075167      -4.49410522 F F F      -0.48556725      -0.44857688       0.73557483
Ge       0.17433957      31.59010322      20.16543252      -0.00104948      -0.00273830       0.00111405      -4.40518480 F F F       0.48551816      -0.30592471       0.05533248
Ge       1.47568926      33.01454429      21.67753425       0.00010300      -0.00066177       0.00163694      -4.48719125 F F F       0.01600706       0.80695529       0.23421014
Ge       2.96221484      28.67196862      20.10516479      -0.00132285      -0.00179099      -0.00105565      -4.45746919 F F F      -0.17541593       1.01611868       0.67851992
Ge       4.31093866      30.21725734      21.80943802       0.00077779       0.00009545      -0.00195554      -4.48476544 F F F      -0.26752163      -0.33992233      -0.39570552
Ge       3.08625523      31.68175690      17.29409123      -0.00456441      -0.00001520      -0.00130876      -4.47990890 F F F       0.13081975       0.54224656       0.05814939
Ge       4.49973360      33.17746204      18.76140265      -0.00076033      -0.00134917      -0.00086482      -4.47700814 F F F      -0.00710957      -0.73610431       0.25940029
Ge       0.03233380      28.94255426      23.17404113      -0.00008421      -0.00024612       0.00196828      -4.50920432 F F F       0.27613222      -0.23309711      -0.27406394
Ge       1.52896976      30.26877116      24.66592300      -0.00130449       0.00064001       0.00005787      -4.50265547 F F F      -0.52103289       0.32958675      -0.05898522
Ge       0.00293403      31.78282060      26.04185609      -0.00010943       0.00038095       0.00001182      -4.46979769 F F F       0.99718789      -0.38914875       0.20901635
Ge       1.61461428      33.10120995      27.46546119       0.00097204       0.00020612      -0.00626767      -4.44928037 F F F      -1.08187112       0.45880401      -0.83396789
Ge       2.93525164      28.85926935      26.12115401      -0.00108845      -0.00267135      -0.00226167      -4.48386365 F F F      -0.21348853       0.09664358       0.31596200
Ge       4.36014830      30.31926967      27.55409885       0.00149352      -0.00183884      -0.00183979      -4.52107724 F F F      -0.08453105       0.18607417       0.20938589
Ge       2.89140938      31.75112996      23.24653365      -0.00008450       0.00169838       0.00050154      -4.49705630 F F F       0.50561925      -0.39901820      -0.12374508
Ge       4.43422601      33.10212785      24.70629699      -0.00184305      -0.00216089       0.00041484      -4.41511270 F F F      -0.49819888       0.35776161      -1.00244522
Ge       0.05334621      28.82993118      28.94522693       0.00048413       0.00080241      -0.00089346      -4.48523081 F F F       0.35276508      -0.47173686      -0.15437600
Ge       1.45113131      30.33330265      30.33282877       0.00115344      -0.00126012      -0.00128182      -4.46686594 F F F       0.03190608      -0.63780191       0.51703759
Ge       0.12421594      31.81788853      31.74510499      -0.00339355       0.00103369      -0.00131158      -4.40304956 F F F       0.13573428       0.02527900      -0.28846351
Ge       1.54486534      33.17002344      33.18356905      -0.00113543       0.00247586      -0.00040862      -4.45019632 F F F      -0.54311999       0.79816289       0.34341152
Ge       2.86297513      28.89232274      31.85087652       0.00116831      -0.00076927      -0.00382506      -4.50845237 F F F       0.28694678      -0.23000982      -0.21615442
Ge       4.33087845      30.44426991      33.20651482      -0.00119760       0.00101544      -0.00147409      -4.48341676 F F F      -0.06309160      -0.75214005       0.46978294
Ge       2.82477785      31.80871165      29.01390491      -0.00094294       0.00243132       0.00257591      -4.40185463 F F F       1.50976995      -0.51849879      -0.18775356
Ge       4.26043799      33.44662516      30.24195969      -0.00209595      -0.00048545       0.00272993      -4.46709060 F F F       0.72017770      -0.90965484       0.65969976
Ge      46.15789442      28.92394718      34.65680380       0.00232032      -0.00055094      -0.00185938      -4.46347099 F F F      -0.64995022      -0.14230267       0.10887773
Ge       1.39421507      30.35502037      36.01277311      -0.00047398      -0.00171797       0.00050851      -4.48129727 F F F       0.64433988       0.22312117       0.72657655
Ge      46.14674813      31.84695340      37.51335757      -0.00364560       0.00000293      -0.00018714      -4.48310964 F F F       0.08714459      -0.78020642       0.53495550
Ge       1.40751036      33.20862861      39.07521606       0.00167823       0.00133084       0.00081796      -4.47530480 F F F       0.56510424      -0.37821646      -0.48290778
Ge       2.99054511      28.80632515      37.36772963      -0.00172691      -0.00080748       0.00133265      -4.47808077 F F F      -0.87343134       0.19228857       0.32161702
Ge       4.35627864      30.16447267      38.91092347      -0.00019570       0.00038665       0.00159045      -4.48963032 F F F      -0.05107391       0.51883434       0.38368746
Ge       2.91564200      31.88852088      34.69073215       0.00194549      -0.00106229       0.00422036      -4.46585029 F F F       0.08831549      -1.00539113       0.13258949
Ge       4.47021958      33.07724317      36.16639968      -0.00204834      -0.00502765      -0.00137235      -4.44555799 F F F      -0.29577969       0.92572634      -0.25421255
Ge      46.07801956      28.89986196      40.40358747      -0.00100703       0.00175366      -0.00065589      -4.48487325 F F F       0.33429622      -0.13092495       0.57362255
Ge       1.45300060      30.32730683      41.97221092       0.00278148       0.00028406      -0.00068317      -4.48547275 F F F       0.01465253      -0.52677389      -0.68346216
Ge       0.05873154      31.65852133      43.52419714       0.00014601      -0.00000390      -0.00051338      -4.45476007 F F F      -0.90627568      -0.57326565      -0.46252649
Ge       1.35626567      33.14800890      44.85781084       0.00377734      -0.00021485      -0.00040950      -4.42572475 F F F       1.21519828      -0.16379155      -0.09818972
Ge       2.78637210      28.68368404      43.35818581       0.00077925      -0.00084257       0.00233808      -4.49455066 F F F       0.20708817       0.41315685      -0.43063721
Ge       4.26767232      30.17505537      44.69807678       0.00072466      -0.00026621       0.00117372      -4.49654503 F F F       0.18360899       0.15284524       0.39202685
Ge       2.95491668      31.72037748      40.41152643       0.00014476      -0.00005737      -0.00094543      -4.49548321 F F F      -0.23895387      -0.32220724       0.23141548
Ge       4.31123218      33.15302654      42.00436416      -0.00130505       0.00016700       0.00143499      -4.50013083 F F F      -0.03544543      -0.41416395       0.06907929
Ge      46.12915466      34.45881304       0.05098565       0.00407124      -0.00204659      -0.00065017      -4.45919207 F F F      -0.35747630       1.37306983       0.53176196
Ge       1.46093043      35.91848086       1.51860624       0.00006498      -0.00064017       0.00064878      -4.49815911 F F F      -0.14774929      -0.21198833      -0.46459102
Ge       0.06235715      37.37429708       2.91515942       0.00252002      -0.00009182      -0.00207039      -4.49150843 F F F      -0.22087414       0.07907658      -0.10541188
Ge       1.46015734      38.79041410       4.37709599       0.00177725       0.00142880      -0.00184203      -4.50733923 F F F       0.59100640      -0.05829025       0.10338002
Ge       2.94194259      34.46624327       2.85350540      -0.00131955       0.00141285      -0.00231157      -4.49874772 F F F      -0.18248836       0.27598391       0.62428059
Ge       4.41293963      35.97793771       4.26124058       0.00108532      -0.00180076      -0.00063882      -4.50247211 F F F      -0.05232357      -0.21643839       0.50160836
Ge       2.92946575      37.35035883       0.12982441      -0.00141832      -0.00255403      -0.00060969      -4.50454376 F F F       0.13545742       0.49383755      -0.21932474
Ge       4.32345856      39.01761118       1.51440722      -0.00156665      -0.00033449      -0.00006526      -4.46761442 F F F      -0.08190216      -0.97264519      -0.41089333
Ge       0.07806039      34.49272265       5.68220500      -0.00088743       0.00015899       0.00184255      -4.48200368 F F F      -0.42981109       0.30583391       0.70932049
Ge       1.35709785      35.99759558       7.21720450      -0.00135285      -0.00044950       0.00161807      -4.47661677 F F F       0.89985629      -0.28509384       0.15371671
Ge       0.10534640      37.41378224       8.84601442      -0.00101989       0.00296063       0.00137749      -4.47798603 F F F      -0.70294948       0.28848541      -0.44015136
Ge       1.50987289      39.00554719      10.20738341       0.00049234      -0.00098154       0.00017668      -4.48292569 F F F      -0.16017427      -0.26896533      -0.21595694
Ge       2.91803151      34.48370361       8.65718219      -0.00327414      -0.00008228      -0.00004267      -4.49899334 F F F      -0.09192272       0.06795576      -0.34782276
Ge       4.34348119      36.01204570      10.06654400       0.00020353       0.00122366       0.00412148      -4.49664283 F F F       0.10471398       0.02256495      -0.58104488
Ge       2.98983004      37.35478885       5.81305890       0.00093176       0.00229935      -0.00050229      -4.49238786 F F F      -0.57179070      -0.10720824      -0.27211964
Ge       4.38022811      38.86732827       7.16056711      -0.00078181       0.00228277       0.00290201      -4.48376230 F F F      -0.09708211       0.48908758       0.54158435
Ge       0.07443612      34.52176854      11.59135713      -0.00001356      -0.00174569       0.00249174      -4.49668502 F F F      -0.04167134       0.23170040      -0.76034040
Ge       1.39851027      36.08817043      12.97591283       0.00172755      -0.00138212       0.00129746      -4.48988323 F F F       0.37712351      -0.35154283       0.09190734
Ge      46.11150663      37.38646913      14.44144797      -0.00230018      -0.00030234      -0.00197719      -4.48958647 F F F       0.23531818       0.48445780       0.29319844
Ge       1.40404656      38.86193183      15.91750708       0.00036175       0.00281805       0.00386771      -4.51191751 F F F       0.34015501      -0.22498013      -0.13960159
Ge       2.86538287      34.71357722      14.50088742      -0.00037649      -0.00160057       0.00456157      -4.50571392 F F F      -0.16914162      -0.41341254      -0.16270428
Ge       4.46361049      36.06411845      15.81364352      -0.00447016       0.00074303      -0.00249158      -4.51007194 F F F      -0.00160926       0.17817027       0.10141384
Ge       2.91089616      37.39030265      11.50003667      -0.00093759       0.00148453      -0.00070447      -4.47991875 F F F      -0.14104443       0.54277287       0.08604480
Ge       4.33355137      38.90398631      12.87013805       0.00112317      -0.00046505       0.00279114      -4.47280324 F F F       0.00412768      -0.17686819       0.36589411
Ge       0.18147027      34.51121580      17.31305558       0.00184778       0.00024692       0.00204752      -4.47478988 F F F      -0.94250414       0.22110268       0.31487293
Ge       1.64015333      36.00390774      18.71004029      -0.00096676       0.00024910      -0.00215859      -4.49394863 F F F      -0.35479955      -0.41113413       0.50510119
Ge       0.06773744      37.41153465      20.17207438       0.00017821      -0.00021196      -0.00231423      -4.48273009 F F F       0.58246915      -0.10392706       0.09198044
Ge       1.44331047      38.71968283      21.83664786       0.00082581       0.00044977       0.00026214      -4.49732604 F F F       0.21144973       0.28880272      -0.59495971
Ge       2.97488746      34.40531933      20.22575269       0.00099603      -0.00054578      -0.00100617      -4.48979473 F F F      -0.35098452       0.90486616       0.07094936
Ge       4.23969344      36.01643328      21.71911876      -0.00053644      -0.00194659      -0.00044502      -4.45321556 F F F       0.83757445      -0.97081600      -0.22889040
Ge       3.03588710      37.46804010      17.30646411      -0.00084405      -0.00185587       0.00346285      -4.49241111 F F F      -0.11743059       0.42494874       0.04803423
Ge       4.29634454      39.03428043      18.86714241      -0.00114862      -0.00025356       0.00291162      -4.48604243 F F F       0.11539834      -0.75521434       0.13298863
Ge       0.10262049      34.71114750      23.10132095      -0.00107031       0.00050490       0.00224581      -4.48310409 F F F       0.37180729      -0.36628706      -0.53700093
Ge       1.57674247      35.97400396      24.61729669       0.00042395      -0.00231600      -0.00040320      -4.41236372 F F F      -0.93830573       0.79813152      -0.57201739
Ge       0.07355096      37.48748934      25.92586311       0.00231983       0.00131030       0.00130306      -4.51108172 F F F      -0.51788793      -0.42177109       0.57132447
Ge       1.51435222      38.88129237      27.40537513      -0.00381138      -0.00004494       0.00026280      -4.45004553 F F F      -0.95403298       0.88985857      -0.57077842
Ge       2.89384055      34.53663719      25.90857480      -0.00075147      -0.00061521      -0.00169660      -4.42048498 F F F       0.74114400      -0.25816876       1.38963362
Ge       4.22488819      36.08388193      27.42302136       0.00013702       0.00576477       0.00331519      -4.47599166 F F F       0.42563577      -0.69615411       0.17624520
Ge       3.00996327      37.38588486      23.23526186      -0.00112394      -0.00108136      -0.00206686      -4.45064388 F F F      -0.31389217       0.56484319       0.16790100
Ge       4.47086502      38.87912327      24.58399876      -0.00076516      -0.00247724       0.00038738      -4.51350951 F F F      -0.49627801       0.34709054       0.47534404
Ge       0.09628476      34.52673183      28.79662060      -0.00098470       0.00020394      -0.00106554      -4.48661456 F F F      -0.12507260       0.54858291       0.32786725
Ge       1.36825936      36.16251921      30.22131271       0.00070228      -0.00180134       0.00158301      -4.49416496 F F F       0.44274413      -0.79390640       0.41152128
Ge       0.08008414      37.52437373      31.79824349      -0.00101358       0.00118002       0.00040171      -4.44611768 F F F      -0.22103416       0.54332682      -0.70883841
Ge       1.49815422      38.95972267      33.19978848       0.00100337       0.00490050       0.00055748      -4.47827564 F F F      -0.46835458       0.13356254       0.66666046
Ge       2.83754182      34.68481609      31.79775324       0.00184982      -0.00201649       0.00240170      -4.46838366 F F F      -0.10797109       0.60718628      -0.68134849
Ge       4.30391804      36.04340463      33.22471658       0.00147524      -0.00102187      -0.00120108      -4.49755129 F F F       0.66134202       0.08803486       0.00287541
Ge       2.84557800      37.54619276      28.80752541      -0.00413687       0.00354085       0.00004717      -4.42872834 F F F       0.60956286      -0.27678998       1.03150746
Ge       4.23546878      39.00192022      30.36324424      -0.00028092       0.00292260      -0.00440644      -4.51001090 F F F       0.04582785      -0.47010830      -0.11552622
Ge       0.07946230      34.73099911      34.57652425       0.00004189      -0.00103791       0.00082937      -4.49543593 F F F      -0.04618740      -0.82657053       0.50217176
Ge       1.54296276      35.99465036      36.20085425      -0.00245804       0.00234316       0.00259535      -4.48340195 F F F      -0.17338701      -0.04272517       0.06706060
Ge       0.00639755      37.35834269      37.74875856      -0.00072373       0.00243132      -0.00183408      -4.48205711 F F F      -0.04649642       0.14782466      -0.63299244
Ge       1.38219560      38.86319354      39.12632132       0.00107941       0.00068267       0.00129265      -4.49896765 F F F       0.45261348       0.60648377       0.34551143
Ge       3.06031456      34.52028988      37.65785968      -0.00082014       0.00314256      -0.00031267      -4.49974861 F F F      -0.50603325       0.55449055      -0.01145686
Ge       4.31448308      36.14805122      39.16900290       0.00099564      -0.00409148      -0.00287931      -4.49634769 F F F       0.17420348      -0.71787226      -0.21301982
Ge       2.84627648      37.46192018      34.61660259       0.00077990       0.00266989      -0.00125727      -4.46757224 F F F      -0.00143657      -0.25240999       0.38862497
Ge       4.21928016      38.75097912      36.19948114      -0.00127594       0.00286233       0.00059660      -4.47432474 F F F       0.50901606       0.21359572       0.21455315
Ge       0.01454548      34.49293334      40.61953794       0.00156468       0.00090708       0.00045067      -4.47942247 F F F      -0.27867706       0.33850082      -0.26413846
Ge       1.40246919      35.97036871      41.99702987       0.00312051       0.00126235       0.00075555      -4.38346646 F F F      -0.42140801       0.20113598      -0.31824531
Ge       0.01288782      37.41264819      43.37224824       0.00179526       0.00103621       0.00072369      -4.50856474 F F F      -0.35078222       0.85135410       0.49929810
Ge       1.47545934      38.89355085      44.88791063      -0.00085788      -0.00052815       0.00235071      -4.50307747 F F F      -0.21362560      -0.34283626      -0.03858487
Ge       2.76079583      34.60177135      43.35658720      -0.00148714      -0.00020985      -0.00025806      -4.47336902 F F F       0.89183064      -0.76898372       0.69428947
Ge       4.36041364      35.92421106      44.76388770       0.00213412       0.00268306      -0.00434977      -4.51210346 F F F      -0.33670486       0.54182926       0.20584777
Ge       2.79620586      37.43791222      40.67607657      -0.00024458      -0.00250992      -0.00241352      -4.48663796 F F F       0.21699588       0.37407388      -0.84656864
Ge       4.35607526      38.81721163      41.99847110      -0.00017839       0.00055746      -0.00128301      -4.46530475 F F F      -0.59843215       1.05800747      -0.27223014
Ge      46.14281404      40.35576486       0.12324645      -0.00288552       0.00109213      -0.00004192      -4.50977734 F F F       0.25739138      -0.16485223       0.17726971
Ge       1.47248407      41.74131685       1.59371994       0.00160278       0.00151524       0.00137043      -4.49343464 F F F      -0.58966612      -0.12928999      -0.23460206
Ge      46.07970345      43.13826027       2.92537685      -0.00178231      -0.00068555      -0.00040523      -4.49276797 F F F      -0.08948386       0.24069787       0.53150378
Ge       1.33192304      44.62798398       4.41780190      -0.00286977       0.00216927      -0.00382672      -4.47409969 F F F      -0.03398310       0.33330907      -0.46497571
Ge       2.91010791      40.30552457       2.98008028      -0.00157578       0.00224198       0.00013742      -4.47192124 F F F      -0.40238875       0.17728744       0.38574989
Ge       4.34135406      41.79792839       4.33780537       0.00066600      -0.00053988       0.00317312      -4.50780538 F F F       0.45728520       0.18585867       0.46510814
Ge       2.81036682      43.19501643       0.14060748      -0.00019807      -0.00056966      -0.00266796      -4.46527223 F F F      -0.06886930       0.16584362      -0.21474731
Ge       4.29944783      44.56555148       1.48143270      -0.00268075       0.00207024       0.00026091      -4.48714249 F F F       0.66035020       0.48888461       0.26696718
Ge       0.11187547      40.26818992       5.79395893       0.00096189       0.00106879      -0.00063444      -4.48069064 F F F      -0.16222916       0.38825831       0.78867636
Ge       1.55607305      41.88935166       7.21561940      -0.00186314       0.00040523      -0.00201878      -4.50053054 F F F      -0.40243761      -0.53579291       0.21394401
Ge       0.04312361      43.15148031       8.87046932       0.00025048      -0.00033473       0.00085999      -4.40272046 F F F       0.41096510      -0.26303971      -1.08403608
Ge       1.47918965      44.64452664      10.07633783       0.00127795       0.00034892      -0.00307193      -4.44849088 F F F       0.08802554      -0.01346631       1.16585299
Ge       2.95054971      40.40917858       8.71807883       0.00273032       0.00251415       0.00073810      -4.49969271 F F F       0.45778871      -0.06889665      -0.26428481
Ge       4.51211189      41.79577589      10.23763733      -0.00298143      -0.00297379      -0.00055162      -4.46897290 F F F      -0.31010214      -0.71306992      -0.48654485
Ge       2.93955435      43.35963046       5.76307359      -0.00188375       0.00108791       0.00100394      -4.48076025 F F F       0.39630234      -0.39289022       0.45745542
Ge       4.44128385      44.67675141       7.38803714      -0.00133674       0.00111638      -0.00230228      -4.44785589 F F F      -0.87096379       0.03565844      -0.76832013
Ge      46.17829490      40.36689890      11.67953606       0.00169131      -0.00217568      -0.00153056      -4.47754660 F F F      -0.60705450      -0.33618575      -0.77728091
Ge       1.50070538      41.75861886      12.92001681       0.00334313       0.00102648       0.00177467      -4.47525281 F F F       0.80689457       0.09651753       0.62366071
Ge       0.10961811      43.18277712      14.38067027       0.00344523       0.00120461       0.00147627      -4.37789007 F F F       1.20231193      -0.23114987       1.05928034
Ge       1.55773307      44.72673750      15.81823256      -0.00045236       0.00074365       0.00204684      -4.50924867 F F F      -0.51902356      -0.00437211       0.21920668
Ge       2.93635666      40.25534718      14.44106123      -0.00149638       0.00074765      -0.00145328      -4.49959768 F F F      -0.14619982       0.56385362       0.22581096
Ge       4.43697225      41.78725661      15.92956560      -0.00265463       0.00134976       0.00256136      -4.44915264 F F F      -0.89366715       0.62806429      -1.04198519
Ge       2.99110974      43.20669507      11.49661728       0.00136457       0.00085347       0.00075288      -4.50661842 F F F      -0.35789237       0.62313047       0.65125749
Ge       4.32598170      44.76213121      13.04724388       0.00366778      -0.00190411      -0.00089120      -4.48461915 F F F       0.09102002      -0.50012670      -0.62955617
Ge       0.07426521      40.35259983      17.42958335       0.00111804       0.00076314      -0.00121904      -4.47927776 F F F      -0.00098410       0.07383214      -0.53360544
Ge       1.50810520      41.76456524      18.82792834      -0.00315541       0.00140021       0.00112795      -4.49842307 F F F       0.03711069       0.38695174       0.38120452
Ge      46.18360436      43.19632606      20.28821988      -0.00127104       0.00039936      -0.00227133      -4.48196559 F F F      -0.23495088      -0.52523463       0.02223965
Ge       1.38982197      44.65952853      21.66998393      -0.00004102       0.00331244      -0.00020512      -4.47301390 F F F       0.76845862      -0.00849743      -0.12802038
Ge       2.81718408      40.31371145      20.42800069       0.00174639       0.00156660       0.00099205      -4.46056433 F F F      -0.21958314      -0.48568588      -0.59690667
Ge       4.47351146      41.54302897      21.68175261      -0.00117901       0.00043126      -0.00176987      -4.43385724 F F F      -0.39566439       1.16965392       0.29709852
Ge       2.90063152      43.28230317      17.34021580       0.00000785       0.00195143      -0.00298276      -4.50626174 F F F       0.27082316      -0.44956761      -0.16670891
Ge       4.34947815      44.64083610      18.84134223       0.00160006      -0.00135714      -0.00239935      -4.41285225 F F F      -1.08016437       0.12345514      -0.22127255
Ge       0.12267095      40.32623908      23.14894154       0.00002000       0.00241123      -0.00123088      -4.43658852 F F F      -1.29025869      -0.29441375      -0.15580715
Ge       1.42185978      41.74840119      24.54791499      -0.00334160      -0.00035372       0.00122706      -4.40584961 F F F       1.12671037       0.56189682      -0.44465184
Ge       0.13678040      43.16143684      26.00418279       0.00005143      -0.00209837       0.00126613      -4.46354187 F F F      -0.44720797       0.30445390       0.89042384
Ge       1.45563152      44.80833201      27.42912291       0.00138497      -0.00186696      -0.00061595      -4.50870154 F F F      -0.08926662      -0.14338715      -0.11026875
Ge       2.85528985      40.36566600      25.94965733       0.00386907      -0.00324452       0.00152889      -4.51094273 F F F       0.82108109      -0.30760427       0.31470888
Ge       4.22898661      41.80422596      27.56205289      -0.00094296       0.00137735      -0.00074639      -4.51109625 F F F      -0.19417679       0.07166290      -0.37402113
Ge       2.98147365      43.16177565      23.03289966       0.00065547       0.00072998       0.00252492      -4.49920030 F F F      -0.30744453       0.07536674       0.41623318
Ge       4.19831149      44.71166217      24.66626363       0.00464354       0.00102985      -0.00012157      -4.44584091 F F F       0.96242412      -0.48361679      -1.08570699
Ge       0.04337372      40.35636481      28.87110138      -0.00172727      -0.00042073      -0.00400140      -4.50121922 F F F       0.31902013      -0.06433134       0.32291965
Ge       1.37388439      41.92096979      30.36431627      -0.00115716       0.00024505      -0.00034582      -4.50663082 F F F       0.07478784      -0.47504456       0.23283903
Ge      46.17808145      43.31035652      31.91375409       0.00292630      -0.00125328      -0.00106678      -4.49297430 F F F       0.53349232       0.57503339      -0.40007145
Ge       1.54048325      44.83506758      33.24611932       0.00087725       0.00286104      -0.00144732      -4.43876247 F F F      -0.39538317      -1.13981322       0.09100768
Ge       2.87623563      40.43607883      31.84427221       0.00090833      -0.00079767       0.00323862      -4.48972572 F F F       0.16302542       0.60392314      -0.16717000
Ge       4.45410330      41.71038018      33.37923089       0.00129462      -0.00042180      -0.00050119      -4.45255773 F F F      -0.70559053       0.98620027      -0.62718680
Ge       2.78034807      43.34468097      28.92422106       0.00257564      -0.00126787      -0.00224841      -4.49512478 F F F       0.38475905      -0.14202850      -0.11361026
Ge       4.25102829      44.72351952      30.38492315       0.00249625      -0.00100103      -0.00033042      -4.50000024 F F F      -0.19918982       0.33087232      -0.06899312
Ge       0.02611503      40.23437839      34.86720361       0.00004888       0.00453695       0.00272668      -4.45911491 F F F      -0.31162251       0.31792173      -0.98017717
Ge       1.33174924      41.85688401      36.14691316      -0.00274247      -0.00100930      -0.00120785      -4.44121979 F F F       0.96085903      -0.47846582       0.59742127
Ge      46.17457271      43.30034832      37.64536252       0.00323082      -0.00196366      -0.00053178      -4.43073145 F F F       0.78028177       0.07987159      -0.19088994
Ge       1.62467046      44.62491130      39.00732960       0.00349774      -0.00223040      -0.00036621      -4.49509917 F F F      -0.85415749      -0.14484966       0.45864776
Ge       2.95436618      40.27195401      37.67843342      -0.00326969      -0.00356056      -0.00021467      -4.46616158 F F F      -0.93687070       0.29692390      -0.27512163
Ge       4.52505301      41.57379005      39.09846558       0.00233268      -0.00033324       0.00255554      -4.44883803 F F F      -0.98566623       0.83716274      -0.22391111
Ge       2.85521627      43.25045943      34.72619746      -0.00181766       0.00217439       0.00007880      -4.51079621 F F F       0.27247674      -0.21690147      -0.23963359
Ge       4.28186588      44.60611578      36.27109157       0.00033533       0.00095053       0.00009326      -4.50697316 F F F      -0.03883396       0.41153334      -0.61301067
Ge       0.03354505      40.49129639      40.60806842      -0.00028151      -0.00104940       0.00017541      -4.47033227 F F F       0.27792852      -0.54302374      -0.77730659
Ge       1.48299152      41.77958862      42.09765098       0.00114964       0.00078318       0.00085414      -4.45776156 F F F       0.43553628       0.08277930      -0.55997264
Ge       0.06656122      43.21169069      43.45690441       0.00029975       0.00023833       0.00010285      -4.48057302 F F F      -0.34659137       0.48794271       0.09885055
Ge       1.43813968      44.68576322      44.88697178       0.00006256      -0.00271406       0.00122052      -4.48275146 F F F      -0.56912288      -0.03864317       0.57052694
Ge       2.93633397      40.35676174      43.48248652       0.00009442       0.00201382       0.00159810      -4.51307999 F F F       0.10535892      -0.43558561      -0.11492594
Ge       4.28808286      41.89741251      44.87543710      -0.00245009       0.00257411      -0.00113125      -4.47334219 F F F       0.11134156      -0.46027750      -0.31069072
Ge       2.93201406      43.06689993      40.45034239      -0.00042328      -0.00054009      -0.00306659      -4.49906983 F F F       0.13870961      -0.05147938       0.08669382
Ge       4.19654365      44.70254570      41.82823482       0.00205782       0.00288961       0.00042423      -4.48408878 F F F       0.46264024      -0.60915178       0.48060807
Ge       5.78760461      46.06392475       0.06939607      -0.00223079      -0.00146833       0.00030183      -4.50815315 F F F       0.22565234      -0.11802169       0.25189005
Ge       7.11549870       1.45944035       1.63044828      -0.00097908      -0.00170763      -0.00014264      -4.45089635 F F F       0.36743904      -0.21613050      -1.33652784
Ge       5.71882631       2.86536275       2.96584995      -0.00030146      -0.00191980      -0.00083635      -4.43316429 F F F       0.26868876       0.75489541       0.90772756
Ge       7.21980006       4.36988512       4.53464041       0.00134191      -0.00019728      -0.00239745      -4.48967775 F F F      -0.53026653      -0.33940088       0.03692594
Ge       8.59902863       0.15219546       3.02289590      -0.00231745       0.00032827      -0.00024619      -4.47735030 F F F       0.40468196      -0.29537868       0.42571607
Ge      10.13745336       1.48793382       4.47734891       0.00459259      -0.00272670      -0.00027808      -4.48868852 F F F       0.37367586      -0.08330325      -0.69874014
Ge       8.62208969       2.97072511       0.14365171      -0.00054241      -0.00121521       0.00008587      -4.51462656 F F F      -0.26318534      -0.65790190      -0.01824035
Ge      10.03765339       4.40220014       1.57931574       0.00178258       0.00097562      -0.00056978      -4.45005764 F F F      -0.10282811       0.72746976      -0.47077462
Ge       5.73987538      46.07891597       5.86264477      -0.00139284       0.00015889      -0.00265547      -4.49704719 F F F       0.82796681       0.31889096      -0.10260600
Ge       7.37472319       1.36342761       7.14520096      -0.00275489       0.00009687      -0.00030625      -4.42076537 F F F      -0.57844562      -1.10179968       0.61518927
Ge       5.97520230       2.63067035       8.67653944      -0.00228995      -0.00069033      -0.00180031      -4.46128176 F F F      -1.17490197       0.79659662       0.47276132
Ge       7.21328308       4.30210640      10.12498155      -0.00107412       0.00001902      -0.00004494      -4.43148031 F F F       0.50360138      -0.69906444      -0.81423863
Ge       8.72591280      46.12854202       8.73458433       0.00111671       0.00006839       0.00175544      -4.49606493 F F F       0.28630499       0.60219335      -0.20543396
Ge      10.17255568       1.52013322      10.14893994       0.00012648       0.00212092       0.00069226      -4.47314227 F F F      -0.41674456      -1.07234649       0.30469439
Ge       8.77015213       2.88363971       5.98518552       0.00228811       0.00018426       0.00279158      -4.39599086 F F F       0.01145793       0.74421004      -1.16364724
Ge      10.24133087       4.32982679       7.26513401       0.00127977      -0.00211049      -0.00214668      -4.48279714 F F F      -0.09669452       0.50429105       0.51684839
Ge       5.80950305      46.07628295      11.50638013       0.00137464      -0.00004728      -0.00086130      -4.48766719 F F F      -0.40263114       0.18888584       0.21853747
Ge       7.20417383       1.38795239      12.89676209       0.00116372       0.00020344      -0.00158860      -4.47698819 F F F      -0.31853711       0.86332728       0.26336355
Ge       5.68894405       2.91445058      14.46653953       0.00405581       0.00423292       0.00078151      -4.47777309 F F F       0.26499204      -0.62404054      -0.66330081
Ge       7.19057525       4.18378149      15.93100352      -0.00030765      -0.00079713      -0.00377997      -4.47755326 F F F       0.07681103       0.61066749      -0.06731985
Ge       8.58321306       0.05114356      14.40637855      -0.00044597       0.00284450      -0.00188993      -4.49119728 F F F       0.50588843      -0.25856058       0.31418707
Ge      10.16877358       1.37605348      15.88256133      -0.00249972       0.00221800       0.00063182      -4.50395419 F F F      -0.45621877       0.26414751      -0.06935448
Ge       8.69023883       2.95259725      11.57039625      -0.00175690      -0.00226897      -0.00107097      -4.50665838 F F F       0.34182668      -0.22434476       0.50437589
Ge      10.21856527       4.30134036      13.13716307      -0.00001768       0.00381343       0.00347996      -4.47995473 F F F      -0.38727040       0.41921532      -0.75382318
Ge       5.71580773      45.94198250      17.36112590      -0.00027464       0.00075412       0.00079063      -4.45727056 F F F       0.16524282       0.64320826      -1.00584996
Ge       7.06436162       1.29635028      18.69361015       0.00040761      -0.00281996       0.00071846      -4.48471063 F F F       0.50184955       0.27976265       0.76679673
Ge       5.77567841       2.83941778      20.22506218       0.00207476      -0.00077973      -0.00133416      -4.48250160 F F F      -0.08876501       0.02521566      -0.51636601
Ge       7.26945769       4.14729426      21.69857764      -0.00113430       0.00001623       0.00240405      -4.46369120 F F F      -0.35488482       1.02123819       0.25897764
Ge       8.53591006      46.17303355      20.30245580       0.00099993       0.00319273       0.00075921      -4.49105690 F F F      -0.19957633      -0.24825605      -0.20099836
Ge      10.07926995       1.44943278      21.66309745       0.00231413      -0.00500336      -0.00436534      -4.46254516 F F F      -0.13461652      -0.10550932      -0.30463596
Ge       8.62254907       2.72891130      17.37980470      -0.00098094       0.00068261       0.00071452      -4.50669321 F F F      -0.07241158      -0.11713634      -0.37973494
Ge       9.89513960       4.29823527      18.78400518      -0.00339249       0.00149599      -0.00000157      -4.47002086 F F F       0.40275355       0.04367928      -0.00426990
Ge       5.79325277      46.09590229      23.10893785      -0.00221348      -0.00101610       0.00116235      -4.48539094 F F F      -0.45748518      -0.00118472       0.45312697
Ge       7.25029326       1.32610474      24.63843303       0.00093986       0.00209403       0.00124545      -4.48746993 F F F      -0.49808231       0.21261595       0.10843559
Ge       5.71898768       2.96641154      25.98737219       0.00164009       0.00212960      -0.00176372      -4.48763799 F F F       0.41169673      -0.62865555       0.11125051
Ge       7.17611789       4.34582229      27.52292531      -0.00124369      -0.00267736       0.00116620      -4.45087497 F F F      -0.81768070       0.69660378      -0.73773870
Ge       8.49737998      45.99166630      26.22428181      -0.00054915       0.00266468       0.00364038      -4.47486178 F F F       0.80629627       0.53601529      -0.52922753
Ge      10.10292918       1.45582697      27.42943281      -0.00355920       0.00036733      -0.00191064      -4.47903239 F F F      -0.75440408      -0.58524325      -0.08582229
Ge       8.71477810       2.77127713      23.19887280       0.00180372       0.00268365      -0.00138190      -4.47639589 F F F      -0.18711187       0.57618518       0.39050452
Ge      10.02603384       4.44871729      24.66314554      -0.00017107      -0.00081672      -0.00014873      -4.48593336 F F F      -0.02044983      -0.24498132      -0.76576583
Ge       5.73094659       0.01859026      29.02544845      -0.00074154      -0.00041774       0.00069404      -4.45075899 F F F      -0.49784426      -0.32130348      -0.31678329
Ge       7.27930832       1.32058490      30.32713006       0.00409636       0.00242351      -0.00062966      -4.46460323 F F F      -0.22946747       1.18952567       0.45790891
Ge       5.72147792       2.85939836      31.78391132       0.00174909      -0.00061702       0.00224895      -4.49325475 F F F       0.62718279      -0.08986525      -0.18496609
Ge       7.08940716       4.33198003      33.34379497       0.00034080      -0.00251365      -0.00065328      -4.48490833 F F F       0.23474244      -0.54122589      -0.44616957
Ge       8.60252781      46.15691535      31.90837054      -0.00284281       0.00146450      -0.00052515      -4.48619066 F F F       0.29715751       0.13462249       0.03995995
Ge      10.08100209       1.62995838      33.11338422       0.00207553      -0.00073050      -0.00049010      -4.48954247 F F F      -0.50452739      -0.48827804       0.55834469
Ge       8.56609325       2.90177244      28.75282541       0.00493513      -0.00196544       0.00006932      -4.44276219 F F F       0.81647189      -0.98476963       0.94098752
Ge      10.03561111       4.28543024      30.21769412       0.00068247       0.00236776      -0.00149477      -4.51476549 F F F      -0.38368699       0.53399053       0.12097340
Ge       5.70417253      46.06444485      34.73010779      -0.00098020       0.00108093      -0.00100899      -4.50024374 F F F      -0.32907959       0.66951628       0.39446962
Ge       7.12989480       1.46270522      36.16108325       0.00014552       0.00345015      -0.00168979      -4.45537271 F F F      -0.52602592      -0.40620046      -0.46094935
Ge       5.65233358       2.83216127      37.56750608       0.00064648       0.00077966      -0.00071848      -4.50800950 F F F      -0.54946033       0.09517590       0.01265236
Ge       7.06325430       4.16377224      39.04117089       0.00167025       0.00130619       0.00111222      -4.45272347 F F F       0.65921261       0.54574432      -0.38842745
Ge       8.53185745       0.10652952      37.57883221      -0.00200482       0.00077194      -0.00108118      -4.50349862 F F F       0.75910921      -0.65786990       0.56321222
Ge      10.12948950       1.47343359      39.06618533       0.00096307       0.00321227      -0.00072038      -4.46522340 F F F      -1.10678294       0.30791862      -0.71626848
Ge       8.56086895       2.89027973      34.79260615       0.00091615      -0.00036489      -0.00234668      -4.46840643 F F F       0.24802066       0.07897383      -1.05282670
Ge       9.99844007       4.37426116      36.07972785      -0.00131096       0.00035802       0.00358375      -4.48112943 F F F      -0.36814634       0.58637703       0.91767455
Ge       5.72551440      46.05117756      40.44079375      -0.00062852       0.00187316      -0.00282664      -4.49117004 F F F      -0.00378571       0.59248674       0.31253935
Ge       7.13688438       1.36066648      41.96397151      -0.00027902      -0.00100521       0.00097236      -4.50266025 F F F      -0.06318671      -0.45569922       0.34986762
Ge       5.70218638       2.89876993      43.42257634      -0.00027135       0.00178901      -0.00332774      -4.50129390 F F F       0.24957478      -0.59500784      -0.17388959
Ge       7.14517647       4.33474354      44.86812840       0.00039267      -0.00149606      -0.00113388      -4.47042757 F F F       0.57681286      -0.09972192      -0.52077751
Ge       8.72572249      46.04266087      43.43233004       0.00054199      -0.00103377       0.00072122      -4.43599518 F F F      -1.25176020       1.07753123       0.24721009
Ge      10.04282843       1.47755521      44.82512847      -0.00336203      -0.00106663       0.00228328      -4.47455742 F F F      -0.28654670      -0.55122618       0.60604238
Ge       8.49641924       2.78433610      40.47122181       0.00254480      -0.00096639       0.00363894      -4.43351372 F F F      -0.00087098      -0.68961008      -0.40728507
Ge       9.92869568       4.04208912      41.89309927       0.00239620      -0.00407551       0.00002707      -4.45346202 F F F       0.42550968       1.26054628       0.63544909
Ge       5.69637679       5.81897506      46.08517236      -0.00023695      -0.00027804      -0.00379373      -4.48024541 F F F      -0.39319860       0.51429272       0.71216388
Ge       7.06873139       7.30065895       1.43772356      -0.00351008      -0.00106196       0.00198004      -4.48084050 F F F       0.84337866      -0.46596912      -0.14432146
Ge       5.78938845       8.64464051       3.00922374      -0.00091523       0.00116184      -0.00181753      -4.44791813 F F F      -0.41241276       0.74207900      -0.57894935
Ge       7.31867600      10.08819955       4.34563145       0.00366196      -0.00117325       0.00075943      -4.48683155 F F F      -0.40687294      -0.52445877       0.74652313
Ge       8.49363869       5.83929334       3.00090216      -0.00073778      -0.00320021      -0.00408500      -4.47759892 F F F       0.20111206      -0.16779810      -0.44945640
Ge      10.08155698       7.13383945       4.38726396       0.00189302       0.00026667       0.00006725      -4.48499425 F F F       0.35830722       0.31691408      -0.11369108
Ge       8.74452705       8.70328367       0.07960885       0.00316259       0.00440336       0.00122253      -4.46247022 F F F      -0.69574515      -0.65851387      -0.83673721
Ge      10.24127922      10.07295780       1.37765410      -0.00081786       0.00081937      -0.00032221      -4.43693870 F F F      -0.23986601      -0.04559528       0.91651276
Ge       5.59645272       5.82704639       5.96763584      -0.00119883       0.00237693       0.00172501      -4.43386252 F F F       0.61383785      -1.20161912      -0.29381400
Ge       7.02309459       7.26281237       7.34548246      -0.00319809      -0.00141509       0.00184547      -4.48412291 F F F       0.83200500      -0.03892825       0.14730810
Ge       5.71201511       8.80570775       8.74322214      -0.00311878      -0.00194832      -0.00187370      -4.46353535 F F F      -0.35953780      -0.53229985       0.02325693
Ge       7.14136522      10.24123958      10.08674395       0.00145407       0.00054568       0.00229260      -4.47737470 F F F       0.77956430       0.11193364       0.52818529
Ge       8.60257213       5.80470390       8.71136902       0.00213014      -0.00160593      -0.00051394      -4.44867904 F F F      -0.05240662      -0.62030829      -0.85394989
Ge      10.13711369       7.13194780       9.98369101       0.00029327      -0.00088085       0.00337887      -4.45862077 F F F       0.71131172       0.58071308       0.35066304
Ge       8.67002859       8.54104572       5.92427919       0.00129732      -0.00164739      -0.00404990      -4.47169042 F F F      -0.31960579       0.39033508      -0.67685839
Ge      10.07493096      10.21719590       7.06934235      -0.00029269      -0.00048447      -0.00138196      -4.46872532 F F F       0.33434446      -0.27314340       0.74727704
Ge       5.81220629       5.70774333      11.40837193       0.00108478      -0.00135137       0.00202659      -4.44641324 F F F      -0.90310080       0.70747634       1.18840758
Ge       7.30782619       7.16265857      12.86447319       0.00285226       0.00132084      -0.00239028      -4.47799104 F F F      -0.84838697       0.19198960       0.28558847
Ge       5.68033870       8.68238418      14.34395272       0.00547786      -0.00053859      -0.00094383      -4.46821545 F F F       0.98222848      -0.56241767       0.09286832
Ge       7.22697651      10.12528267      15.74375472       0.00356881      -0.00037786      -0.00239217      -4.44449514 F F F      -0.56354803       0.81140887      -0.87667939
Ge       8.56191088       5.71215315      14.46914994       0.00055336      -0.00144837      -0.00064423      -4.47319788 F F F       0.26755121      -0.39248857      -0.50222034
Ge       9.98874428       7.19019026      15.78504588      -0.00011454       0.00310736      -0.00280241      -4.48610062 F F F       0.23878259       0.11779724       0.72602614
Ge       8.71976719       8.59744540      11.40418666      -0.00218708       0.00051550      -0.00062446      -4.47810622 F F F      -0.09460821       0.75702306       0.26233868
Ge      10.19746862      10.05853716      12.92166721      -0.00199988      -0.00052450       0.00002513      -4.49542579 F F F      -0.25997217       0.37584398      -0.17028288
Ge       5.80762490       5.88802534      17.18877189      -0.00007842       0.00204512      -0.00060091      -4.48981354 F F F       0.06325345      -0.43071947       0.53060343
Ge       7.20285352       7.30239486      18.77893045      -0.00064583       0.00009532       0.00108916      -4.47581908 F F F       0.30533916      -0.34650606      -1.02230357
Ge       5.65462872       8.56639685      20.12056502       0.00044411       0.00003471       0.00212736      -4.46248364 F F F       0.29560246       0.83864594       0.48589644
Ge       7.06610306      10.05380793      21.63291707       0.00065337      -0.00245749      -0.00212155      -4.50088884 F F F      -0.13615962      -0.32530652      -0.12290913
Ge       8.57740446       5.78317471      20.22758705       0.00104229       0.00042763      -0.00005761      -4.46981026 F F F      -0.43139174      -0.27000774       0.14110088
Ge       9.95865274       7.27880199      21.60282207      -0.00264446      -0.00107328      -0.00095055      -4.49544823 F F F       0.27771921       0.01806320       0.14835644
Ge       8.57621868       8.78224874      17.13408037       0.00203545       0.00043277      -0.00149414      -4.45091099 F F F       0.70526599      -1.08149882       1.13825704
Ge      10.09524549      10.09115039      18.65503702       0.00210867      -0.00174824      -0.00116238      -4.48973800 F F F      -0.44408350       0.27821765      -0.54961968
Ge       5.76363136       5.86723604      23.09591992       0.00062125      -0.00281807      -0.00026618      -4.48276447 F F F       0.57120676      -1.07596891       0.18748184
Ge       7.20711448       7.27378111      24.63590983       0.00021192       0.00012513      -0.00083197      -4.45865675 F F F      -0.63474974       0.35494643      -0.53739644
Ge       5.88982166       8.74135380      26.18737785       0.00124441       0.00311904      -0.00004071      -4.47345008 F F F      -0.57338200      -0.25292463      -0.85169780
Ge       7.22140972      10.19080810      27.58189496       0.00257299      -0.00039516       0.00058319      -4.44739272 F F F      -0.10183195      -0.04728675       0.76276190
Ge       8.51651744       5.87082317      26.06036657      -0.00117746      -0.00027978      -0.00229364      -4.44696767 F F F       0.37017409      -0.92399437       0.13289095
Ge       9.95319721       7.23227026      27.46059978      -0.00160254      -0.00226581      -0.00232602      -4.49982843 F F F       0.52457368       0.80456485       0.39041773
Ge       8.55721403       8.68819473      23.10357307      -0.00169854       0.00404206      -0.00105550      -4.51107437 F F F       0.41715054       0.28487779       0.29693430
Ge      10.15226120      10.11714711      24.55963827      -0.00175092       0.00085343      -0.00203524      -4.48510311 F F F      -0.72768054      -0.47145254       0.29902832
Ge       5.94006685       5.83249618      29.12832375      -0.00095727      -0.00208643       0.00006601      -4.47909702 F F F      -0.85806525      -0.47260495      -1.14978635
Ge       7.34624890       7.25555729      30.42873561       0.00030596      -0.00060424       0.00049553      -4.37374428 F F F      -0.13719545       0.20048110       0.24276463
Ge       5.81122032       8.61042325      31.77629036      -0.00143556      -0.00351584      -0.00016176      -4.48149922 F F F       0.24070471       0.45303647       0.34517588
Ge       7.28612527      10.05056405      33.23109325       0.00111082       0.00072809       0.00086294      -4.47283827 F F F      -0.85193976       0.51178907       0.40072086
Ge       8.54896491       5.63674619      31.78094605       0.00210601       0.00192946      -0.00149502      -4.48886478 F F F       0.58725710      -0.07631090       0.35250865
Ge       9.92804713       7.15959543      33.24412021       0.00195764      -0.00184700       0.00040132      -4.43561797 F F F      -0.82605332      -0.11990956       0.11313203
Ge       8.67978479       8.75707323      29.06311613       0.00097974       0.00037541      -0.00051460      -4.50614653 F F F       0.70911040       0.38170934      -0.51916793
Ge      10.27186556      10.19731318      30.52617370       0.00086949      -0.00093151      -0.00256566      -4.48008122 F F F      -0.81030873      -0.02749756      -0.71030286
Ge       5.64316206       5.75946676      34.67792253       0.00135621       0.00054444      -0.00045320      -4.47124207 F F F       0.21271523       0.64012126       0.80385348
Ge       7.03566022       7.30679852      36.33062744      -0.00074244       0.00276002       0.00385046      -4.48832232 F F F      -0.19000174      -0.39218143      -0.72411311
Ge       5.74844623       8.94527944      37.69982900       0.00006565      -0.00163765       0.00409110      -4.42698330 F F F       0.23852712      -0.94665336       0.02756542
Ge       7.42246985      10.04638156      39.17524592      -0.00119125      -0.00009739       0.00231076      -4.46973948 F F F      -0.39306654       0.13033279       0.29835726
Ge       8.48115943       5.83958930      37.71161963      -0.00339048      -0.00007886      -0.00188673      -4.45646985 F F F       0.16725488      -1.10330852      -0.65234936
Ge      10.19119333       7.00490023      38.99017203       0.00179249      -0.00043767      -0.00185645      -4.44577778 F F F      -0.09645508       0.62621280       0.18627739
Ge       8.52025032       8.55917983      34.76726590      -0.00279475      -0.00048096      -0.00200255      -4.49218980 F F F       0.35776481       0.19406430      -0.04796866
Ge      10.06879349      10.05172200      36.06236829       0.00051027       0.00235559       0.00079490      -4.51561691 F F F      -0.08646267      -0.21262071       0.17138414
Ge       5.80787877       5.61601438      40.50531502      -0.00128924       0.00182173       0.00085031      -4.47680593 F F F      -0.04498868       1.00416154       0.48541928
Ge       7.41161408       7.20785471      41.87946659       0.00453131       0.00184760       0.00012320      -4.45275542 F F F      -1.23382985      -0.77755647       0.64220364
Ge       5.81060554       8.66442747      43.33586924       0.00018669      -0.00337473      -0.00394665      -4.48951092 F F F       0.11302770      -0.52105313      -0.03813672
Ge       7.15419382      10.13018644      44.83906426       0.00039120      -0.00068230       0.00057603      -4.49415694 F F F       0.56329207      -0.17253396       0.13085684
Ge       8.71498974       5.70425888      43.42231866       0.00196526      -0.00113268       0.00072940      -4.49832246 F F F      -0.31136040      -0.27793187      -0.48478767
Ge      10.20098373       7.19537954      44.70639808      -0.00212740      -0.00288770      -0.00136890      -4.48296243 F F F      -0.19389471       0.45017058       0.51590431
Ge       8.92295061       8.48674959      40.53811919      -0.00067446      -0.00333583      -0.00112670      -4.45981981 F F F      -0.16327380       0.66714017      -0.73646878
Ge      10.21814443       9.98656678      41.99840169      -0.00004480      -0.00180091      -0.00080281      -4.47851181 F F F       0.28126862       0.56438480      -0.55650919
Ge       5.76021159      11.66976727       0.02711228       0.00368316       0.00230372      -0.00134620      -4.46133817 F F F      -0.75274687      -0.46117767      -0.58417308
Ge       7.12568941      13.01771745       1.47446775       0.00057589      -0.00106428      -0.00200987      -4.47893177 F F F       1.32416914       0.18471155       0.12562986
Ge       5.83229089      14.46173858       2.98406424       0.00287944       0.00029748       0.00131691      -4.44223292 F F F      -0.09496368       0.41149329      -0.80359796
Ge       7.23862477      16.01836237       4.23982354       0.00335018       0.00143968      -0.00084002      -4.48156562 F F F       0.98133890      -0.56082794       0.29229991
Ge       8.65102157      11.41552407       2.81796117       0.00178844      -0.00114159      -0.00089490      -4.47784779 F F F       0.05067499       0.47799364      -0.76404061
Ge      10.09886722      12.89500411       4.12058466      -0.00025325      -0.00169908      -0.00326717      -4.43852045 F F F       0.26287489      -0.32999523       0.79726044
Ge       8.71210615      14.52542695       0.00763501       0.00149556       0.00323902       0.00364870      -4.42887502 F F F      -0.36253357      -0.50213967       1.21308697
Ge      10.15319400      15.97089297       1.45725495       0.00119736      -0.00089819       0.00193578      -4.51067801 F F F      -0.04541486      -0.01225733      -0.19965029
Ge       5.79696329      11.56300487       5.77364682       0.00047395      -0.00056074       0.00105767      -4.50885731 F F F       0.75813214       0.42490473      -0.45515966
Ge       7.34027410      13.02464757       7.16018434       0.00169504      -0.00504397       0.00022440      -4.49231185 F F F      -0.70235716       0.22416954      -0.35572007
Ge       5.77640027      14.48595283       8.52813427      -0.00202296      -0.00036026      -0.00035673      -4.48006117 F F F       0.26298324      -0.77413596      -0.14560574
Ge       7.30554961      15.81376084       9.87188587       0.00117319      -0.00086844       0.00181660      -4.49101996 F F F       0.32166587       0.62768372       0.31384345
Ge       8.69996502      11.66654877       8.64719366       0.00338745       0.00328645       0.00032707      -4.48790477 F F F       0.24977402      -0.47963417       0.37833724
Ge      10.18562214      13.08425185      10.15562458      -0.00195560       0.00021488      -0.00222543      -4.48615870 F F F       0.23901339      -0.21246241      -0.89931788
Ge       8.76659884      14.33584234       5.56909438      -0.00255985       0.00282175       0.00181729      -4.48782834 F F F      -0.68229872       0.82348644       0.30125697
Ge      10.08224144      15.84332933       7.11397516      -0.00192490       0.00310346      -0.00001969      -4.44885199 F F F      -0.08203226       0.21397805      -0.44822778
Ge       5.77171113      11.81648707      11.56028435       0.00021043       0.00261019       0.00158217      -4.47308540 F F F       0.23310806      -1.20379216       0.14498926
Ge       7.33697531      13.20764985      12.90580385      -0.00102771      -0.00269882       0.00158576      -4.48591823 F F F       0.05213176      -0.49183413       0.14946395
Ge       5.75133280      14.51638115      14.25789603       0.00466781      -0.00371929       0.00191660      -4.46040074 F F F       0.13360648       0.26047827      -0.02976137
Ge       7.09408065      15.85646693      15.82190910       0.00077871      -0.00011333      -0.00202540      -4.46809938 F F F       0.15985753       0.91009787       0.25417020
Ge       8.76589126      11.66601950      14.34265021      -0.00031699      -0.00218943       0.00136884      -4.49535619 F F F      -0.45820584      -0.55926311      -0.33375545
Ge      10.09180299      13.13126568      15.81104204      -0.00158581       0.00557926       0.00211057      -4.50232636 F F F       0.07659047       0.04822966       0.10629991
Ge       8.79911108      14.60087942      11.47668250       0.00095744       0.00088399       0.00238944      -4.47561498 F F F      -0.37931233      -0.09476894      -0.13346997
Ge      10.17453224      16.03226588      12.91148965       0.00001339       0.00262680       0.00062684      -4.50727794 F F F       0.34564830       0.16255818       0.13285819
Ge       5.84930547      11.60316190      17.19638943      -0.00466026       0.00171474      -0.00241865      -4.50849722 F F F      -0.56772507      -0.42823641       0.16028064
Ge       7.30043940      12.89452899      18.68926132       0.00022278      -0.00069720      -0.00032130      -4.45717819 F F F       0.14041686       0.62236963      -0.38423802
Ge       5.86281174      14.38655161      20.01819819       0.00092027       0.00101018       0.00251690      -4.46471336 F F F      -0.43105884       0.44379019       0.95807638
Ge       7.15828820      15.87035605      21.79179768       0.00034159      -0.00369696       0.00117304      -4.44899184 F F F       0.05128793      -0.36019144      -1.34281926
Ge       8.51340419      11.31220907      20.11274951       0.00074633       0.00074775      -0.00287560      -4.46780827 F F F       0.49909276       0.38493551       0.15140368
Ge       9.96211480      12.78815135      21.52650783      -0.00038305      -0.00024820       0.00096433      -4.50963273 F F F       0.36313022       0.09869517       0.03734518
Ge       8.64866499      14.57174640      17.27235826      -0.00094073      -0.00205212      -0.00260780      -4.50784727 F F F      -0.11585396      -0.65482698       0.03823077
Ge      10.13069338      15.93049751      18.72963907       0.00093377      -0.00220962      -0.00063247      -4.46553763 F F F      -0.34326541      -0.18875260      -0.27326598
Ge       5.71620210      11.66480611      22.92282062       0.00289277      -0.00083898       0.00267070      -4.46683192 F F F       0.18475280      -0.08703027       0.70396870
Ge       7.22673028      13.10244000      24.43417504      -0.00143004      -0.00190936      -0.00240561      -4.42704259 F F F      -0.36041680      -0.94380174       0.96645507
Ge       5.70414195      14.34589461      26.11054789       0.00299186      -0.00350739       0.00189090      -4.48427294 F F F       0.54445101       0.08210118      -0.43368775
Ge       7.17450339      15.93224079      27.39194904      -0.00037106       0.00023559       0.00162267      -4.50279338 F F F       0.12858383       0.19118877      -0.14249396
Ge       8.63660996      11.51299247      26.09523066       0.00395835       0.00482347      -0.00265150      -4.45102383 F F F      -0.10983549       0.44915127      -1.28470791
Ge      10.10446916      13.01357556      27.34742055      -0.00030620      -0.00274303       0.00229897      -4.47862951 F F F      -0.39935272       0.35296026       0.80739428
Ge       8.69172367      14.33528767      22.94233201       0.00177530       0.00126954      -0.00093245      -4.40596572 F F F       0.09100680       0.69255661       0.40612912
Ge      10.00457815      16.01595543      24.33465017      -0.00023114      -0.00296778       0.00260843      -4.48881709 F F F       0.09305360      -0.45000219       0.78724030
Ge       5.60450703      11.45197686      29.09110430      -0.00167289       0.00203468       0.00020463      -4.45131879 F F F       1.23807769       0.51609797      -0.13981278
Ge       7.39131037      13.09160431      30.23830359      -0.00178163      -0.00370831       0.00182331      -4.40456310 F F F      -0.97985636      -1.21187381       0.06221779
Ge       5.85631749      14.32229077      31.65795882      -0.00117183       0.00184068      -0.00052639      -4.45677983 F F F      -0.72751515       0.37696337       0.78995214
Ge       6.97412819      15.84606561      33.31056982       0.00318773      -0.00135761      -0.00219760      -4.46393164 F F F       0.44373881       0.36131594       0.34198763
Ge       8.64321046      11.62356710      31.81820504      -0.00134761       0.00049419      -0.00122605      -4.47720858 F F F       0.41220568      -0.19937673      -0.05686154
Ge      10.12811596      13.03479230      33.22874980      -0.00061270       0.00127749       0.00214517      -4.50363691 F F F      -0.17598191       0.06823323       0.12226135
Ge       8.68038757      14.58145608      28.83497474       0.00082267      -0.00206224       0.00031415      -4.42385215 F F F       0.02841582      -0.54958510      -0.94463756
Ge       9.84801288      15.95382614      30.40254196      -0.00167629      -0.00160470      -0.00037769      -4.45101693 F F F       0.48019975       0.76388836       0.33313662
Ge       5.75069386      11.48298010      34.85564600      -0.00092883       0.00020476      -0.00305069      -4.48086793 F F F       0.48512424       0.20283125      -0.82687705
Ge       7.24633794      12.96557624      36.32454868      -0.00223051      -0.00022353       0.00102933      -4.48591648 F F F      -0.03516237      -0.23610939      -0.88663299
Ge       5.80868945      14.47447481      37.61086686      -0.00017739      -0.00301305       0.00139694      -4.47404810 F F F      -0.60670081      -0.42738621       0.01353966
Ge       7.31959889      15.77015565      38.98187619      -0.00250480      -0.00006132      -0.00018584      -4.46131168 F F F      -0.16082981       1.03888868       0.46405456
Ge       8.71505490      11.46695368      37.64488265      -0.00194274       0.00072780      -0.00044987      -4.49154619 F F F       0.38843816       0.33103220      -0.22239093
Ge      10.26607941      13.02884110      38.86704694       0.00121841       0.00014560       0.00010840      -4.44531138 F F F      -0.98712092       0.38030308       0.23418525
Ge       8.60593509      14.41460097      34.71070109       0.00066277       0.00153078      -0.00053151      -4.49542531 F F F      -0.04310185       0.00820893      -0.04428222
Ge      10.18297788      15.85523623      36.03686673      -0.00140340      -0.00055025      -0.00257579      -4.49105174 F F F      -0.56208541      -0.00327112       0.47301505
Ge       5.81067531      11.50623912      40.52889825      -0.00026732      -0.00056586      -0.00104431      -4.47235332 F F F       0.88254331       0.35785370      -0.17476227
Ge       7.39225642      12.96187800      41.92249501      -0.00244073      -0.00049502       0.00079715      -4.48085432 F F F      -0.18797103       0.02738436      -0.53535987
Ge       5.85967648      14.51204150      43.13662484      -0.00018353       0.00086046      -0.00137692      -4.48302181 F F F       0.15020507       0.37098663       0.50091556
Ge       7.28278606      15.89784577      44.86361958      -0.00325496       0.00121044      -0.00030926      -4.43770048 F F F      -0.38359229      -0.05508378      -1.29941509
Ge       8.72686844      11.41649697      43.37454773       0.00173642       0.00122948       0.00012922      -4.48856668 F F F      -0.10283060       0.57102336       0.39447180
Ge      10.07084083      13.09396778      44.81854988       0.00064288       0.00093794       0.00050297      -4.47554161 F F F       0.82770599      -0.87474414      -0.72962653
Ge       8.83087172      14.48897010      40.44357246       0.00042324       0.00105792      -0.00172590      -4.50638028 F F F       0.14859679      -0.53815069       0.10312187
Ge      10.28540265      15.94349901      41.93795254       0.00259374       0.00162413       0.00164186      -4.48403268 F F F      -0.66346894      -0.25561457      -0.23249293
Ge       5.78940792      17.27181930       0.00830570      -0.00320385      -0.00227465       0.00213678      -4.48209948 F F F      -0.13549864       0.39931526       0.42912740
Ge       7.11955294      18.81360481       1.45578457      -0.00166031       0.00330978       0.00137834      -4.51202443 F F F       0.53453355       0.11352100      -0.31255381
Ge       5.74635589      20.19687254       2.99329394      -0.00156479       0.00078301       0.00120823      -4.48085778 F F F      -0.10206971      -0.11901194      -0.52558096
Ge       7.23486255      21.50721914       4.41909140      -0.00048320      -0.00031536       0.00084317      -4.46169821 F F F       0.44005185       0.69271300      -0.64499217
Ge       8.72054430      17.48087986       2.81237435       0.00147320       0.00054245       0.00006635      -4.47353631 F F F       0.10782845      -0.21371379       0.59232959
Ge      10.28919827      18.64074821       4.52073945      -0.00259426      -0.00099637      -0.00091229      -4.48290767 F F F      -0.57650007       0.13657375      -0.33479358
Ge       8.67356348      20.24923830       0.00013142       0.00201272      -0.00181889      -0.00130810      -4.40181566 F F F      -1.45665933       0.11515430       0.08684334
Ge      10.06083725      21.53551573       1.45167230      -0.00152556       0.00265416      -0.00061239      -4.43854688 F F F       0.87041538       0.12882785       0.53284854
Ge       5.84433252      17.32206845       5.77332064      -0.00189697       0.00077421       0.00022617      -4.46086535 F F F       0.39564098       0.13512318       0.35834997
Ge       7.20448346      18.84073286       7.29175196      -0.00021475      -0.00179232      -0.00163700      -4.46037091 F F F      -0.18128477       0.14235574      -1.02608609
Ge       5.69392126      20.15742293       8.68964015       0.00073022       0.00116606       0.00119407      -4.40312272 F F F      -0.09453252       0.38414236      -0.87874155
Ge       7.14644911      21.65954624       9.86711137       0.00052232       0.00370520       0.00265162      -4.45931261 F F F       0.99965875      -0.17515989       1.14341522
Ge       8.69296712      17.40935888       8.46045802      -0.00491851      -0.00356958       0.00148881      -4.46084856 F F F       0.40805765      -0.81588420       0.92541596
Ge      10.18602967      18.78605147       9.96348560       0.00050352       0.00014897       0.00296322      -4.48648956 F F F      -0.61497955       0.21912384       0.40388815
Ge       8.73442884      20.20641990       5.81033083       0.00170010       0.00282093       0.00082376      -4.45783361 F F F       0.01100493      -0.82091147       0.05529933
Ge      10.18969309      21.68005094       7.07265642       0.00022042       0.00151078       0.00055782      -4.49142293 F F F      -0.09789519       0.15143656       1.01622150
Ge       5.80809156      17.23134442      11.26053015      -0.00175810       0.00177985      -0.00028557      -4.46965764 F F F       0.09712782       0.79416173       0.45686150
Ge       7.10146716      18.76237067      12.86030453      -0.00046578       0.00058957       0.00102082      -4.47518155 F F F       0.94193633      -0.51468885      -0.57871675
Ge       5.73962793      20.08329182      14.35727821       0.00291182      -0.00119374       0.00099490      -4.46667225 F F F      -0.45678062       0.89920161      -0.23113451
Ge       7.17905340      21.62252805      15.69692728       0.00111751       0.00056027      -0.00015720      -4.48186660 F F F       0.08744175       0.12205009       0.03281679
Ge       8.63430374      17.33958483      14.32795575       0.00017840       0.00210000      -0.00106538      -4.49341881 F F F      -0.57132756       0.03665484       0.37500135
Ge      10.04205521      18.78707975      15.82966452      -0.00210402       0.00086597       0.00323746      -4.48509204 F F F      -0.62188630       0.12177600      -0.07613342
Ge       8.68832018      20.24839989      11.46945633       0.00313038       0.00500575       0.00018148      -4.49505026 F F F      -0.63784605      -0.22108366      -0.51693042
Ge      10.04224385      21.71111787      12.93917117       0.00367558      -0.00104867      -0.00107525      -4.46087924 F F F      -0.61550414       0.15020785       0.21368823
Ge       5.60303894      17.32540438      17.44312276      -0.00048014      -0.00062234      -0.00030102      -4.47989368 F F F       0.70572370      -0.51586846      -0.67670518
Ge       7.21257575      18.66823696      18.77002932       0.00404905      -0.00396610      -0.00166683      -4.48379627 F F F       0.10756591       0.00337916      -0.16394151
Ge       5.77531820      20.10898839      20.14041085       0.00211299      -0.00085818      -0.00359837      -4.50643016 F F F      -0.11173356       0.48633822       0.00042345
Ge       7.19960348      21.68615622      21.52180668       0.00254005      -0.00008765      -0.00147803      -4.46568146 F F F      -0.41661383      -0.73136700       0.52143763
Ge       8.66190719      17.19441073      20.20981905       0.00133569      -0.00071828       0.00021194      -4.49257991 F F F      -0.13111139       0.75285336       0.61579704
Ge      10.18877839      18.76493153      21.64123061      -0.00050265      -0.00141385      -0.00008750      -4.48729653 F F F      -0.64691108      -0.06151487      -0.05599921
Ge       8.48072307      20.18224576      17.21130734      -0.00000315      -0.00192959      -0.00044803      -4.48028082 F F F       0.68953943       0.06628780       0.63052526
Ge       9.93471764      21.67263300      18.83224175      -0.00394863      -0.00103721      -0.00144587      -4.49383893 F F F      -0.00954454      -0.37621208      -0.00623192
Ge       5.68586670      17.29416309      23.14803081      -0.00080788       0.00212159       0.00241915      -4.46133261 F F F       0.54570873       0.85259574       0.00141393
Ge       7.14796399      18.97578785      24.45104009      -0.00099099       0.00114783      -0.00054523      -4.48205147 F F F       0.00216432      -1.05605420       0.29729333
Ge       5.63994047      20.26001435      25.93280839      -0.00002153       0.00136387       0.00344963      -4.49931137 F F F       0.50163432      -0.18494481       0.63004410
Ge       7.10131510      21.65045314      27.48794286       0.00027858       0.00090479       0.00029148      -4.47040234 F F F       0.00607645      -0.16360351      -0.72929637
Ge       8.62493814      17.47260376      25.95017486       0.00127211       0.00359766       0.00001563      -4.49788851 F F F      -0.23390835      -0.25573858      -0.40312435
Ge      10.15872435      18.84038079      27.39145131       0.00057558       0.00325358      -0.00137592      -4.47581761 F F F      -0.56130481      -0.35475007       0.32294746
Ge       8.63719439      20.25546189      22.98712131      -0.00066965       0.00366889      -0.00151311      -4.49594128 F F F       0.23166873       0.09063328       0.05207236
Ge       9.94553705      21.66021692      24.64753316       0.00113196      -0.00046428      -0.00124209      -4.47140504 F F F      -0.35364941       0.38172520      -0.63558998
Ge       5.77390725      17.35059435      28.89374044      -0.00180082      -0.00154748       0.00322241      -4.48676224 F F F      -0.30748161      -0.44603088       0.24347870
Ge       7.06929859      18.87842944      30.34761307       0.00045688       0.00284889       0.00420949      -4.48186258 F F F       0.64247539      -0.21611932      -0.19650546
Ge       5.76554001      20.33667834      31.82067686       0.00211115       0.00023095      -0.00141322      -4.46629390 F F F      -0.35784000      -0.57477217       0.53093455
Ge       7.14040528      21.79678434      33.23136523      -0.00028543       0.00188468       0.00004955      -4.46666239 F F F       0.16960322      -0.06915198      -0.05101912
Ge       8.38750383      17.41355468      31.92376379      -0.00306473      -0.00051686      -0.00271832      -4.48516674 F F F       0.12311806      -0.38044408      -0.57576273
Ge       9.94733868      18.89334311      33.12306613      -0.00071841       0.00072545      -0.00107035      -4.48761954 F F F       0.21535730       0.36596435       0.48395202
Ge       8.56814216      20.23471688      28.78178209       0.00045705       0.00203072       0.00112653      -4.47751714 F F F       0.59983247      -0.48910512       0.55054060
Ge      10.18157875      21.56053404      30.19910911       0.00063694       0.00036165       0.00099899      -4.48017133 F F F      -0.52450769       0.70110727       0.12208356
Ge       5.71711507      17.49366904      34.89539438      -0.00075432      -0.00320955       0.00094274      -4.45774760 F F F       0.28635321      -0.13644307      -1.00718277
Ge       7.25018944      18.98039365      36.19747180       0.00121189       0.00166470      -0.00145503      -4.45147594 F F F       0.29313313      -1.15339181      -0.03191454
Ge       5.74152286      20.18675702      37.63130387       0.00213632       0.00096928       0.00070721      -4.46713427 F F F      -0.38878156       0.82275133      -0.09827764
Ge       7.13887415      21.63591104      39.07901265       0.00167732      -0.00275374      -0.00125467      -4.46589457 F F F       0.85506566      -0.76389280       0.08739301
Ge       8.67524895      17.30566156      37.54481518       0.00258931      -0.00065864       0.00053980      -4.50081019 F F F       0.19142702       0.02641920      -0.19928771
Ge      10.07128896      18.74661920      39.04454355       0.00226609       0.00102434      -0.00025095      -4.42852363 F F F       0.11862071       0.86588253      -0.87207208
Ge       8.52820707      20.38527790      34.64304352       0.00230100       0.00156058      -0.00034813      -4.49357247 F F F       0.66193262      -0.32817092      -0.12489884
Ge      10.00987922      21.83306163      36.01841662       0.00311710      -0.00120150       0.00184260      -4.49167746 F F F       0.27250527      -0.81934164       0.61262013
Ge       5.90988101      17.39506557      40.43626865       0.00116291      -0.00134302       0.00160380      -4.45747831 F F F      -0.68733938      -0.88332764      -0.68058629
Ge       7.28520717      18.62643351      41.93136808       0.00195462      -0.00065889       0.00092245      -4.45516903 F F F       0.47319406       0.62651103       0.90863572
Ge       5.82879339      20.12308748      43.38354279       0.00099960      -0.00165749       0.00005358      -4.48119883 F F F       0.13230920      -0.00381988      -0.84287063
Ge       7.22752387      21.66710207      44.63952176      -0.00172999      -0.00059057      -0.00087072      -4.49591902 F F F       0.58736761       0.59103210       0.36704988
Ge       8.80130271      17.29053076      43.45073095      -0.00228963      -0.00295851       0.00080895      -4.50753463 F F F       0.11229832       0.67656066       0.00408154
Ge      10.20641168      19.07471763      44.81176092       0.00016756       0.00100798      -0.00208633      -4.41229251 F F F       0.05991777      -1.55452986      -0.91525921
Ge       8.68337263      20.17937142      40.60242396       0.00316580       0.00119145       0.00028088      -4.49483149 F F F      -0.17835775       0.12006687      -0.81191480
Ge      10.17439968      21.70340141      41.85655976      -0.00107747      -0.00060981      -0.00046907      -4.49461992 F F F      -0.44414004       0.28641116       0.36476180
Ge       5.72763679      23.05140622      46.11243744      -0.00144140       0.00141521      -0.00027011      -4.50698398 F F F      -0.00886177      -0.12629977       0.12329872
Ge       7.27196309      24.35896422       1.38943327       0.00388628      -0.00223443      -0.00001723      -4.44526210 F F F      -0.02416885      -0.58887674       0.31660212
Ge       5.98989130      25.77516555       2.88594895      -0.00197537      -0.00254135      -0.00291627      -4.39355715 F F F      -1.48747186       0.53106326       0.08113683
Ge       7.40108801      27.20474193       4.37725422       0.00062620       0.00131536       0.00539615      -4.49860442 F F F      -0.24199188       0.13359285      -0.15881672
Ge       8.77671900      22.97469071       2.92017498       0.00105400      -0.00181060      -0.00003746      -4.49584203 F F F      -0.68991079       0.56076512       0.49030803
Ge      10.17059016      24.62212170       4.37216810       0.00298496      -0.00258856       0.00179778      -4.47261565 F F F       0.31527759      -0.93661510      -0.64001170
Ge       8.59975746      25.79266158      46.15798952       0.00116262       0.00020132       0.00114031      -4.48162509 F F F       0.76132370       0.57428638      -0.09692664
Ge      10.02279608      27.31654987       1.38487193      -0.00047747       0.00009596       0.00056097      -4.46496837 F F F       0.29852264      -0.68740536       0.62654205
Ge       5.72636627      22.94698287       5.72711234       0.00031353       0.00091418      -0.00057704      -4.47512969 F F F       0.05410312      -0.33454080       0.45751413
Ge       7.07813676      24.48298341       7.13213871       0.00351459       0.00081025       0.00298127      -4.46728327 F F F       0.61624590       0.12839883       0.13579745
Ge       5.72852184      25.91155248       8.62098206       0.00034422      -0.00167831       0.00018411      -4.44431686 F F F       0.55420144      -0.08645059       0.34525163
Ge       7.13003364      27.46399567      10.07678895       0.00252562       0.00267651       0.00028311      -4.50948156 F F F      -0.15696313      -0.55633213       0.06116725
Ge       8.60828553      23.14711067       8.56212459      -0.00112757       0.00038760       0.00127943      -4.48220300 F F F       0.13820138      -0.74813265      -0.67824180
Ge       9.99735207      24.41466588      10.09283995       0.00092980       0.00019272      -0.00343994      -4.45115529 F F F       0.38946326       0.66919001      -0.34077749
Ge       8.82632746      25.87281994       5.95422939       0.00197576      -0.00004893      -0.00025312      -4.43516180 F F F      -0.82555434       0.17064503      -0.46321990
Ge      10.23878148      27.40387597       7.22173176      -0.00095034      -0.00072161       0.00195601      -4.45881972 F F F       0.45391457      -0.24891005      -0.18374730
Ge       5.83931993      23.03183574      11.44113240      -0.00088662      -0.00447233       0.00114859      -4.47881793 F F F      -0.27111898       0.01384580       0.08802625
Ge       7.15584398      24.51253944      12.93808566      -0.00213219       0.00005502       0.00327434      -4.48233899 F F F       0.48693126       0.36996576      -0.59110722
Ge       5.80271261      25.91184731      14.41089581       0.00077180       0.00287207       0.00164830      -4.45957921 F F F      -0.14172659       0.60847654      -0.26142562
Ge       7.22047935      27.34885585      15.87099025      -0.00161251       0.00011394       0.00161385      -4.51677206 F F F       0.25068141       0.20059285      -0.01019126
Ge       8.63602748      23.24984890      14.42040375       0.00007583      -0.00040352       0.00209546      -4.48896506 F F F      -0.04727371      -1.07845889      -0.32378993
Ge      10.10645576      24.48604616      15.91920677      -0.00163826       0.00021327       0.00360111      -4.44335707 F F F      -0.31734810       0.32475513       0.32183351
Ge       8.65175890      25.97032833      11.43152987       0.00172226       0.00018273       0.00139064      -4.50174103 F F F      -0.65021695       0.03450746       0.48653821
Ge      10.05899440      27.34434655      12.95802041       0.00158132       0.00303247      -0.00086951      -4.48180036 F F F       0.84928617      -0.82206662       0.01413693
Ge       5.77220197      22.94580643      17.23079268      -0.00082369      -0.00073729       0.00130433      -4.49960339 F F F      -0.55904014       0.27272088      -0.03036790
Ge       7.08051061      24.47083493      18.71144804      -0.00285656      -0.00012265      -0.00079224      -4.48702271 F F F       0.70876058       0.17610407       0.27836072
Ge       5.70281906      25.93243502      20.18506947      -0.00015908      -0.00074896      -0.00154326      -4.49016553 F F F       0.29854346      -0.17633643       0.31264225
Ge       7.25120519      27.28841277      21.71371162       0.00213256       0.00073593      -0.00004918      -4.51377737 F F F      -0.19557007       0.18399959      -0.37747401
Ge       8.61088335      23.22564697      20.35608171      -0.00328629      -0.00072582      -0.00058119      -4.42166618 F F F      -0.09572496      -0.09996650      -1.32913343
Ge      10.11025174      24.40602724      21.86104767       0.00009260       0.00187125       0.00258786      -4.44045039 F F F      -0.10488313       1.18840456      -0.65620904
Ge       8.69310706      25.93329083      17.36836927       0.00050575      -0.00205464      -0.00345185      -4.51994486 F F F      -0.39457181       0.24935947       0.02059077
Ge      10.08969537      27.47718235      18.82757874       0.00048868      -0.00146927       0.00086545      -4.45276238 F F F      -0.47403267      -1.26012867       0.70342353
Ge       5.77168639      22.99208253      23.07110052       0.00321251       0.00029057      -0.00406853      -4.49457350 F F F      -0.13675201       0.79545401       0.13556537
Ge       7.12080189      24.60132621      24.54849299      -0.00111243       0.00127373       0.00060518      -4.50789026 F F F       0.16833681      -0.41134050      -0.02975854
Ge       5.80620384      26.06248029      26.08224332       0.00014395      -0.00228380      -0.00303473      -4.48768002 F F F       0.07353519      -0.27173756      -0.14062903
Ge       7.32605969      27.33695191      27.57370943       0.00092454       0.00220081       0.00235435      -4.46859312 F F F      -0.50600157       0.24426008       0.44704421
Ge       8.51197127      23.17935292      26.11331900       0.00326705       0.00059936       0.00152046      -4.50786799 F F F      -0.00992187      -0.25390671      -0.54196171
Ge      10.02454217      24.55729942      27.47123799       0.00339567      -0.00344073      -0.00223268      -4.49609158 F F F       0.07324519       0.10146015       0.80073712
Ge       8.73751099      25.98069480      23.23801327       0.00336165      -0.00122530      -0.00009941      -4.44732282 F F F      -0.78573723      -0.75100449      -0.66284522
Ge       9.88431964      27.36281826      24.77611451      -0.00125951       0.00104835       0.00192443      -4.41161469 F F F       1.31555012       0.90979282      -0.17108423
Ge       5.78233511      22.91407637      29.06502161       0.00091984       0.00407434      -0.00051106      -4.45749197 F F F      -0.62096287       0.47821431      -0.31455186
Ge       7.21308363      24.28764335      30.44843965       0.00214936       0.00147449      -0.00235341      -4.46455739 F F F      -0.06494627       0.88831712       0.14105558
Ge       5.75255170      25.87973454      31.78583775       0.00143820      -0.00183531       0.00273824      -4.45476507 F F F       0.70720777       0.71652886      -0.81900715
Ge       7.24504985      27.47286506      33.02399537       0.00080726       0.00122629       0.00065118      -4.47621132 F F F      -0.27244462      -0.06299392       0.73546809
Ge       8.77443516      23.03381504      31.82893423      -0.00296284      -0.00045893      -0.00013686      -4.46818200 F F F       0.27947418      -0.33325210      -0.42988208
Ge      10.08537473      24.63661193      33.18340173      -0.00178953       0.00113127       0.00017558      -4.42789190 F F F      -0.68577857      -0.07546550       0.14201640
Ge       8.58215022      25.87384470      29.12888393      -0.00105959      -0.00075453      -0.00373864      -4.49829923 F F F       0.79602898       0.19496757      -0.31317968
Ge      10.22981072      27.39610462      30.45377086      -0.00160880      -0.00122558      -0.00095490      -4.50161594 F F F      -0.59042825      -0.19844162      -0.64637924
Ge       5.70714408      23.14205699      34.70878063       0.00127077      -0.00013408       0.00123445      -4.46436756 F F F      -0.64974338       0.02679410      -0.71657912
Ge       7.17567528      24.34631635      36.15952700       0.00248502       0.00018513      -0.00110788      -4.41242058 F F F       1.01733996       0.88308400      -0.30450221
Ge       5.88885300      25.80479190      37.58785479      -0.00153734       0.00331834      -0.00156307      -4.43042662 F F F      -1.30022658      -0.08428010      -0.12362645
Ge       7.09734755      27.25065906      39.03266209       0.00215447      -0.00125151       0.00304027      -4.41888376 F F F       0.97976985       1.60321804      -0.12966826
Ge       8.61310097      23.07209352      37.71078855       0.00103068      -0.00078791       0.00394575      -4.46307082 F F F       0.68818487       0.18749199      -0.38176293
Ge      10.29233080      24.62252875      38.85407695      -0.00021768      -0.00077516       0.00173639      -4.47033127 F F F      -0.96836022      -0.76042129       0.66893086
Ge       8.54557386      25.99747266      34.57705190      -0.00079022       0.00350789       0.00068044      -4.49199825 F F F       0.03915132      -0.19127833       0.44555522
Ge      10.17999746      27.36139535      35.95874244      -0.00068448      -0.00049166       0.00153485      -4.47199226 F F F      -0.66394734       0.62228833       0.02441370
Ge       5.83581354      22.93204883      40.60630840       0.00117881      -0.00149410      -0.00125219      -4.40570122 F F F      -1.09206004       0.75312147      -0.64647248
Ge       7.15876734      24.60928680      41.71997128      -0.00375110      -0.00154008      -0.00193245      -4.38824696 F F F       0.69123028      -0.72753062       0.61271915
Ge       5.89113837      25.95514165      43.24243910       0.00226701      -0.00003707      -0.00120045      -4.47127216 F F F      -1.11784481       0.40367442       0.79556706
Ge       7.23086482      27.38139014      44.83192879       0.00019832      -0.00144114      -0.00024889      -4.46664553 F F F      -0.58533604      -0.22397035      -0.01448190
Ge       8.68126942      23.32910933      43.26449994       0.00029287      -0.00097848      -0.00362802      -4.49474528 F F F      -0.21370785      -1.25535411      -0.35506442
Ge      10.20617497      24.48839771      44.75167332       0.00154471       0.00085785      -0.00152810      -4.44921634 F F F      -0.34351273       0.04849726       0.38713673
Ge       8.65029909      25.90477154      40.35136217       0.00122440       0.00086279       0.00140138      -4.41881295 F F F       0.78226381      -0.03644880      -0.56196682
Ge      10.12080197      27.13441096      41.89718447       0.00167646      -0.00236343      -0.00099812      -4.48236609 F F F      -0.06557421       0.49145154       0.31751706
Ge       5.69618482      28.82822882       0.08316811       0.00176250       0.00129135       0.00099453      -4.49484968 F F F       0.02767657      -0.09728041      -0.38604870
Ge       7.18682792      30.19465694       1.52809653       0.00001347       0.00173159      -0.00034737      -4.50327573 F F F       0.02777349       0.34377237      -0.05596773
Ge       5.76666200      31.71448713       2.93953138      -0.00220558      -0.00356673      -0.00057293      -4.48874164 F F F      -0.21846322      -0.63146042      -0.00894961
Ge       7.34181016      33.12376375       4.22441124      -0.00008137      -0.00068847       0.00151575      -4.44932746 F F F      -0.72143673       0.06262900       0.76826750
Ge       8.65830176      28.73845078       2.87721249      -0.00200750      -0.00074538       0.00089547      -4.49764466 F F F       0.35284681      -0.02026270       0.31665147
Ge      10.28153068      30.17940791       4.22230506      -0.00117456       0.00121382       0.00073155      -4.49017088 F F F      -0.96956502       0.52340874      -0.18268492
Ge       8.77124374      31.59125801       0.11389729      -0.00063417       0.00009788       0.00005933      -4.43123911 F F F      -0.21747886       0.26032413       0.73123159
Ge      10.17949377      33.28714023       1.42484461      -0.00289343      -0.00259014       0.00132652      -4.49129694 F F F      -0.11405771      -0.29366607      -0.18626810
Ge       5.79131001      28.66744836       5.60207843       0.00015791       0.00048195       0.00084221      -4.49403815 F F F       0.02897406       0.33105187       0.28028056
Ge       7.25223756      30.15106793       7.05781861       0.00192840      -0.00037080       0.00164123      -4.51842361 F F F      -0.02344586      -0.00895295       0.28534676
Ge       5.91625559      31.59593642       8.69551519      -0.00164961      -0.00159935      -0.00030966      -4.47348262 F F F       0.19551211      -0.19347976      -0.24677253
Ge       7.18900284      33.28275797      10.00380462       0.00017886      -0.00216022      -0.00136958      -4.41268075 F F F       0.51290635      -1.17490836       0.50202846
Ge       8.68403642      28.68136729       8.55984419       0.00278557      -0.00041519       0.00220682      -4.40946104 F F F      -1.00560306       0.28547056      -0.31602480
Ge      10.01556285      30.00193299      10.03139724       0.00185830      -0.00213028      -0.00180718      -4.41714388 F F F       0.33167660       0.81028622       0.83730835
Ge       8.69961722      31.63182618       5.62952772      -0.00113543       0.00123381       0.00511946      -4.50023238 F F F       0.38523359      -0.30849079       0.07827228
Ge      10.15860598      33.04559994       7.09627186      -0.00220301      -0.00207488      -0.00225474      -4.50065169 F F F       0.27593583      -0.14545386       0.42342272
Ge       5.56633762      28.78223852      11.59075187       0.00164178       0.00074414       0.00260504      -4.38291507 F F F       1.78939617       0.40753534       0.14531332
Ge       7.39179251      30.36228908      12.88406693      -0.00008197      -0.00011874       0.00372153      -4.43837628 F F F      -0.99520562      -0.25538097      -0.61117643
Ge       5.81045316      31.75085742      14.25855697       0.00341529      -0.00193558       0.00259211      -4.46963527 F F F       0.36265813      -0.01967294       0.08337248
Ge       7.24054774      33.03804426      15.83374133      -0.00111797      -0.00140926      -0.00021690      -4.45681492 F F F      -0.42229032      -0.31392464       0.66371451
Ge       8.63772719      28.77582247      14.29168396      -0.00009050      -0.00266986      -0.00029718      -4.41314755 F F F      -0.68309369      -0.25726426       0.43029518
Ge       9.92599908      30.07914745      15.85828959      -0.00064522       0.00080606      -0.00121856      -4.46173394 F F F       0.65566641       0.73173194       0.57822026
Ge       8.85411935      31.82562114      11.40277533       0.00077105      -0.00196342       0.00137648      -4.47419967 F F F      -0.68220850      -0.31555916       0.21215109
Ge      10.20644487      33.12725238      13.10172476      -0.00069900       0.00030650      -0.00055957      -4.44785104 F F F      -0.17564722      -0.34757394      -0.56231010
Ge       5.77584535      28.85107588      17.29108717      -0.00036371      -0.00072871       0.00242833      -4.50978572 F F F       0.28083845       0.17080026       0.11367044
Ge       7.19722067      30.29952281      18.92154918      -0.00080730       0.00076153      -0.00018397      -4.47061592 F F F      -0.50284991       0.16380667      -0.93950418
Ge       5.78466367      31.67421893      20.44757469      -0.00012154      -0.00154497       0.00265926      -4.45973965 F F F      -0.51680519      -0.05949983      -1.04981915
Ge       7.19941308      33.07524940      21.78953121       0.00135304       0.00207808      -0.00239455      -4.43980497 F F F      -0.16388295       0.78488488       0.62051056
Ge       8.57823984      28.85743225      20.24419196       0.00052608      -0.00042127       0.00031556      -4.47437658 F F F       0.47215461      -0.58639739       0.67797431
Ge      10.01500969      30.20283563      21.80806793       0.00265095      -0.00143708      -0.00399543      -4.47674889 F F F       0.02606183       0.74001529      -0.70944771
Ge       8.65664404      31.65979684      17.34948435      -0.00046932       0.00021088      -0.00099461      -4.50218549 F F F      -0.20609821      -0.09465152       0.23727383
Ge      10.01526899      33.18616180      18.83910917       0.00319145       0.00251961       0.00042097      -4.50807830 F F F       0.08039721      -0.14394846       0.09343264
Ge       5.84201624      28.76445054      23.15573090      -0.00065713      -0.00188849      -0.00205124      -4.49493650 F F F      -0.02141123       0.30275933       0.54373500
Ge       7.26036059      30.26983100      24.72021814       0.00100314      -0.00218580       0.00050381      -4.49759191 F F F      -0.59934208      -0.54880978      -0.00297645
Ge       5.78723435      31.76025140      26.10574694      -0.00122480      -0.00043337       0.00342544      -4.47505259 F F F       0.71704636      -0.51410742       0.83277578
Ge       7.27473763      33.22410819      27.61155560      -0.00505166      -0.00246661       0.00081786      -4.47117026 F F F      -0.50664019      -0.17592861      -0.67919540
Ge       8.69282004      28.85637050      26.25946507      -0.00213879      -0.00065027      -0.00017510      -4.46408295 F F F      -0.21277877       0.52089086      -0.41852161
Ge      10.25843559      30.26696117      27.57502331       0.00024436       0.00277257       0.00249551      -4.46721091 F F F      -0.95470473      -0.02155779       0.43575457
Ge       8.56230763      31.66827268      23.22746906       0.00054455      -0.00094005      -0.00112424      -4.46871928 F F F       0.91042345       0.16921464       0.25195483
Ge      10.00703242      33.10103759      24.78750697       0.00203604      -0.00092740      -0.00132024      -4.50487232 F F F      -0.27788403       0.57426571      -0.96516819
Ge       5.91053658      28.91838199      28.94123741      -0.00099995       0.00009151       0.00022891      -4.50258388 F F F      -0.24518690      -0.12067851       0.30044197
Ge       7.22835456      30.49554113      30.46736820       0.00031894      -0.00291344      -0.00083143      -4.47033946 F F F       0.31690320      -1.05076634      -0.34805301
Ge       5.74406114      31.87687850      31.82466825       0.00262581      -0.00005514      -0.00050745      -4.45184026 F F F      -0.35553664       0.70770184      -0.69071719
Ge       7.30600315      33.30944841      33.10169761      -0.00246642       0.00096383       0.00031631      -4.44286358 F F F      -0.70013299      -0.78152690       1.15771886
Ge       8.81756759      28.92151599      31.78460563      -0.00139268       0.00072823      -0.00089804      -4.47300129 F F F      -0.48704990       0.37244580      -0.24165545
Ge      10.18145595      30.37955929      33.24726949      -0.00276704      -0.00047347       0.00048473      -4.49208905 F F F       0.15195975      -0.32559509      -0.14177145
Ge       8.71049195      31.77787279      28.96507401      -0.00200603       0.00161625      -0.00079864      -4.50261183 F F F       0.34916948      -0.26906505       0.05812991
Ge      10.12999328      33.25901950      30.35951990       0.00200363       0.00119479      -0.00199768      -4.47732438 F F F       0.00088107      -0.15677429      -0.46556660
Ge       5.82689905      28.87471245      34.62234088       0.00171871      -0.00314833      -0.00148506      -4.50067783 F F F      -0.09497344       0.07591610      -0.10594896
Ge       7.30097009      30.36486690      36.07869150      -0.00195018       0.00245879       0.00179741      -4.47478823 F F F      -0.42720842      -0.58620049       0.12208238
Ge       5.82767210      31.72798861      37.60262289      -0.00039195       0.00080398      -0.00028409      -4.49542605 F F F       0.58973579      -0.56606414       0.47657002
Ge       7.22120494      33.19102036      39.17102487      -0.00159058       0.00060467      -0.00281761      -4.43526165 F F F      -0.75849055       0.41103331      -1.23126437
Ge       8.67900596      28.80169723      37.47242010      -0.00101544      -0.00525603      -0.00218197      -4.45999976 F F F       0.09775455      -0.14165598       0.57835103
Ge      10.09812922      30.33303605      39.06082188       0.00072742      -0.00338745       0.00131831      -4.49028660 F F F      -0.04768085      -1.00247902      -0.07237424
Ge       8.65756625      31.73981857      34.58211952      -0.00088256       0.00163652      -0.00226539      -4.48297816 F F F       0.37576386       0.90026639       0.36541893
Ge      10.14834009      33.15642960      36.21950923       0.00041158      -0.00159123       0.00090504      -4.50705821 F F F      -0.22545547      -0.24934073      -0.43139262
Ge       5.76876300      28.84835805      40.49692592      -0.00002657       0.00402653      -0.00045569      -4.49241294 F F F      -0.20064108      -0.24546789      -0.43154384
Ge       7.25155543      30.33838139      41.80629841      -0.00013366       0.00086426      -0.00019307      -4.47955861 F F F      -0.01143475      -0.16921239       0.79931092
Ge       5.84081517      31.71832577      43.49153510      -0.00014968       0.00022266      -0.00100934      -4.49703992 F F F      -0.20882319      -0.21531207      -0.72363321
Ge       7.30020714      33.03084104      45.03377342       0.00036290       0.00424113      -0.00217901      -4.46377478 F F F       0.00927750       0.51154526      -1.04362404
Ge       8.57868667      28.61336426      43.21204723      -0.00062766      -0.00228985       0.00366578      -4.44939496 F F F       0.54465908       1.17202105       0.12581972
Ge      10.00950177      30.28993588      44.68192859       0.00298731       0.00133407       0.00010065      -4.43596515 F F F       0.80626464      -0.98611514      -0.38669708
Ge       8.68327726      31.84541761      40.42042245       0.00164409       0.00263202      -0.00336133      -4.42515181 F F F       0.96862195      -0.56822387       1.03719391
Ge      10.25701202      33.29705910      41.90834234      -0.00044819       0.00137635       0.00479242      -4.47044668 F F F      -0.73221242      -0.48496207      -0.25416745
Ge       5.81869866      34.57409040       0.03289715       0.00232360       0.00198407       0.00189353      -4.48728450 F F F      -0.06357288      -0.04957307       0.68802817
Ge       7.22418767      36.07154829       1.53041964      -0.00386797      -0.00113730      -0.00191395      -4.51845108 F F F       0.12139156       0.17765734      -0.24182320
Ge       5.77550099      37.60655822       2.94229618       0.00124506      -0.00053987      -0.00106715      -4.49175692 F F F       0.39514062      -0.45730056      -0.06114598
Ge       7.35592212      38.95861613       4.33543231      -0.00140256      -0.00190968      -0.00021442      -4.50011728 F F F      -0.16590475      -0.02057070       0.04997465
Ge       8.75702437      34.63657875       2.97781613      -0.00053981      -0.00266832      -0.00191673      -4.48368294 F F F       0.24079630       0.57591346      -0.40698216
Ge      10.22212701      36.09873889       4.46873465      -0.00156499       0.00278418      -0.00085525      -4.49638242 F F F      -0.63483522      -0.20320400       0.32852093
Ge       8.63897648      37.56158677      46.13890469      -0.00044442       0.00032528      -0.00097998      -4.45699621 F F F      -0.19911699      -0.79831222       0.87834864
Ge      10.22111247      38.79082462       1.37439538      -0.00189202       0.00494827       0.00048538      -4.50045439 F F F      -0.01558380       0.68201016      -0.02703441
Ge       5.84477599      34.50347840       5.81527430       0.00007214      -0.00049961      -0.00040791      -4.50086721 F F F       0.03131097      -0.12930929      -0.61990853
Ge       7.31528890      35.90193775       7.24616483       0.00098015      -0.00182677      -0.00334003      -4.49025272 F F F       0.02091588       0.16319711       0.23422525
Ge       5.86086273      37.45920396       8.56748976       0.00144523       0.00284814       0.00118115      -4.49319546 F F F      -0.22583923      -0.48299178       0.37263150
Ge       7.38251289      38.75875628      10.01933870      -0.00366350       0.00077269      -0.00080163      -4.48381186 F F F      -0.25477368       0.73038112       0.34061915
Ge       8.85132974      34.46269390       8.69669376      -0.00050791       0.00290997       0.00138582      -4.40177369 F F F      -0.80298387      -0.04322885      -1.35670784
Ge      10.12581439      35.92432004      10.02973792      -0.00240593      -0.00083079      -0.00039707      -4.42126549 F F F       0.73374328       0.76672083       0.70347252
Ge       8.64767930      37.56591932       5.96860500      -0.00221805      -0.00121747      -0.00160965      -4.43947366 F F F       0.10099012      -0.98843922      -1.17881687
Ge      10.15811805      38.93387276       7.20708575      -0.00077945      -0.00275343      -0.00127367      -4.44413844 F F F       0.79077556       0.31376371       0.28383590
Ge       5.64597619      34.47916062      11.47970550      -0.00070140      -0.00106688      -0.00093765      -4.42223384 F F F      -0.11559473       0.16631318       0.05300057
Ge       7.09494052      35.73202142      12.96692979      -0.00170642       0.00374624       0.00132962      -4.46286580 F F F       1.11943258       0.99509942      -0.13767908
Ge       5.82683224      37.46687279      14.22042967      -0.00207517      -0.00152343      -0.00168851      -4.47315182 F F F      -0.12807510      -0.16348835       0.61488003
Ge       7.12044003      38.91646405      15.82349060      -0.00029259      -0.00125857       0.00091470      -4.50046353 F F F       0.24323506      -0.17616678       0.23203684
Ge       8.62268172      34.40424188      14.46942239      -0.00026328      -0.00111940      -0.00151962      -4.45164995 F F F       0.59923562       1.19374286      -0.17006365
Ge      10.10826007      35.96052481      15.91992415      -0.00148496      -0.00053464      -0.00147815      -4.48528147 F F F      -0.82358069       0.49847551      -0.14990136
Ge       8.71414968      37.28967460      11.52998578       0.00205618      -0.00040241       0.00090713      -4.48506447 F F F      -0.40132835      -0.00889932       0.58020353
Ge      10.09568801      38.90279913      13.03227015       0.00116516       0.00208465      -0.00037069      -4.44340996 F F F      -1.08832150      -0.17503633      -0.07501853
Ge       5.87687752      34.57574560      17.25915975      -0.00052862       0.00137964      -0.00597328      -4.46368130 F F F      -0.20937784       0.00885210      -0.13184566
Ge       7.08556669      36.01406435      18.84159823      -0.00060889      -0.00066246      -0.00207349      -4.46230053 F F F       0.41454828       0.19671651       0.63005255
Ge       5.74929371      37.51105799      20.41896539       0.00090296      -0.00095031       0.00108309      -4.50864794 F F F      -0.14529006       0.07125080      -0.74097932
Ge       7.32195661      38.85389321      21.86886969      -0.00315563      -0.00079118      -0.00102148      -4.43446804 F F F      -0.77863483      -0.09019724      -0.59773577
Ge       8.55220367      34.59991765      20.42841487       0.00183145       0.00410536      -0.00257390      -4.48410155 F F F       0.18298902       0.06582830      -1.14198247
Ge      10.07436991      36.09975554      21.65479752      -0.00217712      -0.00152499      -0.00004559      -4.48703588 F F F       0.26812358       0.17782463       0.23413867
Ge       8.50970887      37.47578544      17.40693297      -0.00257528       0.00030493      -0.00314557      -4.46177127 F F F       0.82789354       0.20124129      -0.36733827
Ge      10.00639790      39.18791736      18.74620579      -0.00136181       0.00338873      -0.00048635      -4.40552960 F F F       0.45455126      -1.68768261      -0.67214641
Ge       5.75946090      34.58835094      23.26232673       0.00086116      -0.00128247       0.00138140      -4.51997339 F F F       0.10294431       0.32969985      -0.62414445
Ge       7.15289614      36.17137095      24.65674899       0.00394843       0.00323805       0.00009595      -4.49275705 F F F      -0.13382896      -0.28953458      -0.00850123
Ge       5.75502436      37.52741342      26.22661633      -0.00192529       0.00267585      -0.00234888      -4.48085762 F F F       0.46358390       0.48156798      -0.34491326
Ge       7.23897163      39.02739597      27.69250479       0.00117595       0.00272594      -0.00120370      -4.49151832 F F F      -0.21035232      -0.25305947      -0.82916455
Ge       8.51046642      34.68960010      26.07213506       0.00124231       0.00074521      -0.00315273      -4.48353788 F F F       0.75897139      -0.12828008       0.05589726
Ge      10.09062589      36.11445929      27.42644855      -0.00435653       0.00128318      -0.00070814      -4.52281992 F F F      -0.03271406       0.01591102       0.19673370
Ge       8.71126019      37.49844953      23.24117737      -0.00307711      -0.00016355      -0.00081935      -4.45864534 F F F       0.72850179      -0.33808874       0.20809840
Ge      10.21460398      39.09525307      24.49034309      -0.00087123      -0.00156663       0.00050312      -4.48073670 F F F      -0.25636184      -0.86683811       0.44214757
Ge       5.87846914      34.78355667      28.90094325       0.00076687       0.00229220       0.00034182      -4.47336036 F F F      -0.72684643      -0.03053877      -0.15876205
Ge       7.33791146      36.18955736      30.30512526      -0.00102363       0.00032442       0.00006394      -4.45080286 F F F      -0.51967720      -0.73994644       0.81839136
Ge       5.75062109      37.50792722      31.69269234       0.00204428      -0.00179601       0.00243599      -4.51001021 F F F      -0.22972229      -0.10362966       0.52207621
Ge       7.10943260      38.87718008      33.29722222      -0.00050804      -0.00162448      -0.00351043      -4.49106239 F F F       0.05252892      -0.09043521       0.55465083
Ge       8.73290711      34.65675346      31.78372255      -0.00022390       0.00069409       0.00107405      -4.45868878 F F F       0.42480363       1.23225951      -0.26395409
Ge      10.21543846      36.14802153      33.23372005      -0.00245426      -0.00106664      -0.00366754      -4.51421464 F F F      -0.07032998      -0.41918409       0.23509760
Ge       8.72247071      37.60335331      29.01619999      -0.00533638      -0.00176674       0.00002128      -4.45392797 F F F       0.99942166       0.17189735      -0.49213199
Ge      10.17624925      38.98692000      30.54723868       0.00007031       0.00276865      -0.00540163      -4.47089369 F F F      -0.71748654       0.28694625      -0.78619666
Ge       5.83181695      34.60637908      34.68717256       0.00112825      -0.00045898      -0.00499568      -4.52313958 F F F       0.07577105       0.17604867      -0.07637569
Ge       7.37459000      35.98338354      36.14143883      -0.00088881      -0.00206117      -0.00017991      -4.48819393 F F F      -0.80152564       0.48765940      -0.03955077
Ge       5.84121214      37.44489856      37.66384924      -0.00227821       0.00167264       0.00028438      -4.45876570 F F F      -0.32720312      -0.64782047      -0.81549369
Ge       7.32932398      38.79039285      38.98253709       0.00327619       0.00088149      -0.00092748      -4.43781695 F F F      -0.13367738       1.00281759       0.37960866
Ge       8.66214120      34.53903442      37.62056905      -0.00146355       0.00184753       0.00089429      -4.49130855 F F F       0.22227987       0.08865172       0.40033626
Ge      10.10318691      36.01510997      39.07988470      -0.00098952       0.00125557      -0.00021900      -4.50350654 F F F      -0.59720178      -0.08803484       0.07190867
Ge       8.75489297      37.52952817      34.71934948      -0.00233836      -0.00068849       0.00126086      -4.51233590 F F F      -0.33250579      -0.02083779      -0.15751500
Ge      10.18308083      38.92375065      36.24178810      -0.00055339       0.00021380       0.00022443      -4.44597642 F F F      -0.16812081      -0.04231240      -0.69119973
Ge       5.71186656      34.56541454      40.55994964       0.00019735       0.00150007       0.00172610      -4.49899732 F F F       0.19498263       0.72445906       0.17339248
Ge       7.22340772      36.00883649      42.01611069       0.00186498       0.00237562      -0.00013075      -4.51331336 F F F      -0.38734732      -0.03781810       0.14696063
Ge       5.73730788      37.57238013      43.47018350       0.00094689       0.00010973      -0.00156212      -4.37069242 F F F       0.01534028      -2.00901302      -0.67732597
Ge       7.16466899      38.88269384      44.75482602       0.00237398       0.00059837      -0.00422591      -4.39771056 F F F       0.46914583       1.36552512       0.68699920
Ge       8.70619149      34.51255173      43.41830378      -0.00160876      -0.00425779      -0.00193346      -4.50016219 F F F      -0.28377428       0.23553125       0.11102406
Ge      10.06182987      36.14827200      44.74703651       0.00118168      -0.00122625      -0.00285670      -4.48667391 F F F       0.48975292      -0.59891788       0.05984646
Ge       8.61166272      37.45763009      40.54328944       0.00108317      -0.00148840      -0.00123375      -4.47600948 F F F       1.05270623      -0.19225503       0.43447615
Ge      10.23151092      38.95948755      42.00598897      -0.00080917       0.00275762      -0.00034617      -4.48822611 F F F      -0.89761974      -0.07950773      -0.63948874
Ge       5.69964718      40.36781882       0.01442098      -0.00487092       0.00349036       0.00018176      -4.52066181 F F F       0.55824748       0.19678501       0.00929002
Ge       7.19479719      41.75040686       1.48652059       0.00251090      -0.00096725      -0.00070888      -4.48235588 F F F      -0.23107503      -0.10647016      -0.00150991
Ge       5.87646705      43.27302190       2.95804579      -0.00214684      -0.00179176      -0.00069387      -4.51130881 F F F      -0.50819412      -0.36598386      -0.12599676
Ge       7.27164128      44.74962806       4.39529741       0.00275493       0.00048209      -0.00312272      -4.47564953 F F F      -0.63326619       0.34866655      -0.18083234
Ge       8.76811033      40.32254040       2.75113201       0.00205224      -0.00135639      -0.00056662      -4.47111738 F F F      -0.31680451      -0.40953377       0.13518912
Ge       9.91175776      41.85630773       4.24400550      -0.00009955      -0.00237766      -0.00180845      -4.49074840 F F F       0.80587110       0.00784774       0.68710726
Ge       8.58028097      43.25538359       0.16058962       0.00091979      -0.00132470      -0.00011216      -4.48770632 F F F       0.78004600       0.19998881      -0.14143040
Ge      10.03507277      44.85635984       1.66038595      -0.00239020      -0.00222919      -0.00127245      -4.47438415 F F F      -0.33678280      -0.66441149      -0.77532268
Ge       5.87911834      40.33793234       5.80805404      -0.00016516      -0.00243286       0.00076082      -4.48490866 F F F      -0.78057887      -0.05823143      -0.69512119
Ge       7.16936556      41.80233334       7.21257682       0.00072900       0.00234511      -0.00060671      -4.46845034 F F F       0.19997937      -0.17583144       0.98948045
Ge       5.79526657      43.25128997       8.76226307       0.00173790      -0.00097558      -0.00031524      -4.47579392 F F F       0.78753021      -0.42410902      -0.01137042
Ge       7.31997746      44.69183546      10.11088375       0.00053970      -0.00241770      -0.00031164      -4.49551889 F F F      -0.44265982      -0.11465935       0.10285080
Ge       8.79288553      40.36452415       8.61949547      -0.00046926      -0.00168880      -0.00045684      -4.50222267 F F F      -0.74358884       0.31337229       0.42269317
Ge      10.11122881      41.82742867      10.18520991       0.00017673      -0.00045563       0.00047772      -4.50658284 F F F       0.45589646      -0.56228932      -0.14844942
Ge       8.49458914      43.23776618       5.80337034      -0.00217698       0.00126043      -0.00024711      -4.45305971 F F F       1.13377375       0.03556940       0.18944911
Ge      10.05303538      44.53946547       7.38064781      -0.00243069      -0.00041426      -0.00187643      -4.48700172 F F F       0.00987831       0.41641919      -1.02519739
Ge       5.95606089      40.27707223      11.60839869       0.00174372       0.00045432      -0.00182815      -4.47742938 F F F      -0.05203671      -0.35576929      -0.99303348
Ge       7.39963108      41.76668386      12.87241368      -0.00104710      -0.00019255      -0.00172384      -4.41542725 F F F      -0.78227260       0.18350997       0.62196702
Ge       5.85499748      43.19439139      14.25431242      -0.00038674      -0.00071760       0.00334327      -4.49076438 F F F      -0.51145974      -0.19677894       0.53936412
Ge       7.14903058      44.67064180      15.73564798      -0.00199785      -0.00010476      -0.00365789      -4.49375140 F F F       0.50867278      -0.20460923       0.66273100
Ge       8.61055001      40.44103632      14.49106497      -0.00074994      -0.00200228      -0.00124088      -4.49461443 F F F       0.72947854      -0.72076839       0.07720982
Ge      10.16249310      41.88244841      15.83059352      -0.00158787       0.00072879      -0.00394134      -4.46330291 F F F      -0.63926207      -0.34994402       0.34114413
Ge       8.72458313      43.28190969      11.57681461      -0.00044567      -0.00091858       0.00022940      -4.45577319 F F F       0.17769303       0.28189050      -0.28450175
Ge      10.07338979      44.69808716      13.07731321       0.00062216      -0.00210063       0.00184296      -4.49747229 F F F      -0.12199851       0.34237853      -0.23362394
Ge       5.72181832      40.36981061      17.33161233      -0.00086998      -0.00151516       0.00219813      -4.43565838 F F F       0.63775857      -0.38473566       0.54733422
Ge       7.15022197      41.79060334      18.85092525      -0.00123239       0.00301794       0.00130518      -4.47933605 F F F       0.77080359      -0.70700894      -0.87187504
Ge       5.66045335      43.12138537      20.13204390       0.00009121       0.00287612       0.00054301      -4.40485412 F F F       0.36483035       0.16594762       1.47842352
Ge       7.12840976      44.52980964      21.71563696      -0.00354052      -0.00136454       0.00276964      -4.50105955 F F F       0.22703116       0.29035747      -0.25988989
Ge       8.55855705      40.21134159      20.28743526       0.00173165      -0.00255103      -0.00071700      -4.40663309 F F F      -0.18663161       1.69604524       0.40274346
Ge       9.98240195      41.87772564      21.66351279       0.00122054       0.00152837       0.00413356      -4.50631682 F F F      -0.03718418      -0.48177136       0.11067215
Ge       8.61288238      43.17163129      17.27863820      -0.00309049      -0.00041732       0.00187461      -4.50200924 F F F      -0.27703533       0.56850321       0.14763220
Ge       9.91804211      44.79627537      18.71607150       0.00172495       0.00154734       0.00186713      -4.47356605 F F F       0.52917520      -0.42528981       0.25502167
Ge       5.92598409      40.33171108      23.23024727       0.00135337       0.00544450       0.00093218      -4.48589064 F F F       0.18030191       0.38583669       0.41797494
Ge       7.23246623      41.86832537      24.83102443      -0.00237205      -0.00055789       0.00004121      -4.48694436 F F F      -0.28863276      -0.04021854      -0.79455238
Ge       5.65282317      43.30051824      26.17020319      -0.00153185       0.00345633       0.00336624      -4.50676355 F F F       0.26081594       0.07445596       0.13525215
Ge       7.13796193      44.62618532      27.78012253      -0.00139484       0.00096227      -0.00247935      -4.45708728 F F F      -0.50791033       0.12452915      -1.01137609
Ge       8.67744967      40.26961538      26.02283789      -0.00396558      -0.00151915       0.00061354      -4.45796365 F F F      -0.07032885       0.44532631       0.66436063
Ge      10.03051145      41.86382796      27.46324709      -0.00127132       0.00205499      -0.00072902      -4.49484498 F F F       0.17613849      -0.24363889      -0.42160176
Ge       8.66896910      43.25209789      23.26296068       0.00061446       0.00137774       0.00023583      -4.44647137 F F F      -0.78104063      -0.42709408      -0.47261644
Ge      10.02838498      44.70106363      24.60086423       0.00611939       0.00016425       0.00165258      -4.47787726 F F F       0.54902607       0.74394679       0.53620497
Ge       5.70450665      40.43629932      29.01685909      -0.00291809      -0.00028891       0.00003992      -4.47888601 F F F      -0.00366988       0.09997527      -0.08862804
Ge       7.13093369      41.78505402      30.51557568       0.00220715      -0.00158280       0.00089208      -4.49265437 F F F       0.57971765       0.01489374      -0.52283818
Ge       5.75164054      43.35179409      31.75311039      -0.00238467       0.00000137       0.00341724      -4.44771733 F F F      -0.16942714      -0.44260720       1.27844302
Ge       7.17025348      44.69602076      33.37061915      -0.00078622      -0.00168588      -0.00031003      -4.47647915 F F F       0.01848370      -0.00680428      -0.72379727
Ge       8.56667256      40.31493981      31.94620255       0.00183896       0.00108951       0.00122778      -4.48932246 F F F       0.15303881       0.26686238      -0.21039655
Ge      10.05199989      41.82827891      33.23784423      -0.00207793       0.00261539       0.00073625      -4.51235159 F F F      -0.22315589       0.29372534       0.50703219
Ge       8.61204822      43.16070393      28.99301528      -0.00406038       0.00230717       0.00160929      -4.47065535 F F F       0.33824996       0.16618079       0.89959568
Ge      10.05661087      44.73462774      30.47222022       0.00304157       0.00104708       0.00144652      -4.50930323 F F F       0.08175709      -0.30452307      -0.57857319
Ge       5.69180740      40.25987021      34.90176558      -0.00056845      -0.00057850      -0.00005404      -4.47799108 F F F       0.73562570       0.05466012      -0.12988305
Ge       7.21506442      41.80568082      36.27694814       0.00284520      -0.00182005       0.00216570      -4.50125986 F F F       0.34525860      -0.49430792      -0.72436087
Ge       5.73788276      43.18308711      37.62347570      -0.00229530      -0.00164017      -0.00067952      -4.45090462 F F F      -0.00516503      -0.10062251       0.38259192
Ge       7.14475535      44.68498138      38.96906745      -0.00176493      -0.00181097      -0.00187702      -4.50371423 F F F       0.48535029      -0.03417901       0.32689003
Ge       8.77147583      40.31862412      37.61343225      -0.00198731      -0.00112674       0.00202381      -4.49638734 F F F      -0.68323427       0.55637816       0.46581758
Ge      10.04659625      41.88900255      39.10773608       0.00151839       0.00148912      -0.00105381      -4.51845663 F F F       0.22948456      -0.16433338      -0.19377315
Ge       8.62660192      43.30890630      34.76837666       0.00020271       0.00159313       0.00019486      -4.49852300 F F F      -0.12868802      -0.88581633      -0.21451747
Ge       9.99409466      44.75227826      36.17070596      -0.00018560      -0.00096583       0.00099615      -4.43082152 F F F      -0.61934286       1.14572443      -0.35563388
Ge       5.85957814      40.19117892      40.51216448      -0.00402501      -0.00116372       0.00212440      -4.49260994 F F F       0.74365729      -0.17825151       0.51356562
Ge       7.24860579      41.80152744      41.98492281      -0.00006782      -0.00182872      -0.00004888      -4.48240217 F F F      -0.21725931      -0.83840608      -0.27449867
Ge       5.70168193      43.16093089      43.29161467      -0.00129169       0.00116126      -0.00138403      -4.48447386 F F F      -0.30100231       0.82173928       0.05571896
Ge       7.19505447      44.53697708      44.75560569       0.00121243       0.00421218      -0.00234152      -4.49388477 F F F      -0.07791614       0.56727183       0.12393421
Ge       8.69371695      40.32607243      43.40662938      -0.00136274      -0.00263578       0.00265704      -4.52126202 F F F      -0.15284808       0.14983502      -0.11400313
Ge      10.06140259      41.76545566      44.88272510       0.00086995       0.00102301       0.00126746      -4.48743077 F F F      -0.13936178       0.61302753      -0.19895547
Ge       8.59180061      43.26630722      40.55555038      -0.00071887       0.00050969      -0.00084499      -4.48796937 F F F      -0.24958444       0.44959121      -0.67340485
Ge       9.98054551      44.86438647      41.81400487       0.00279933      -0.00061135       0.00200391      -4.38697789 F F F       0.85741165      -1.36624186       0.36143872
Ge      11.43116706      46.08111898       0.03694997       0.00194789      -0.00340961       0.00260869      -4.48585349 F F F       0.70043358       0.58084334      -0.23773342
Ge      13.08215653       1.41358354       1.34082181       0.00134269      -0.00267261      -0.00056158      -4.48998426 F F F      -0.52188847       0.09764910      -0.18969745
Ge      11.53425131       2.90065172       2.71790024      -0.00072181       0.00143852       0.00065120      -4.42968440 F F F       0.64614628      -0.70239182       1.26083854
Ge      13.13851440       4.18136585       4.27999794       0.00174043      -0.00037894      -0.00031061      -4.49391760 F F F      -0.67420629       0.46893113      -0.36986864
Ge      14.39294639      46.08119971       2.82624812      -0.00067011       0.00280881      -0.00077701      -4.42884519 F F F       0.02686019       0.85927895       0.63141760
Ge      16.02793182       1.31172927       4.25064046       0.00045109       0.00165511      -0.00258940      -4.47924135 F F F      -0.64020276      -0.11654163       0.52947222
Ge      14.54416844       2.91338696      46.05056921      -0.00093967      -0.00153928      -0.00335447      -4.48208470 F F F      -1.11358244      -0.12902049       0.21417248
Ge      15.84806404       4.35183942       1.35541429      -0.00339457       0.00019170       0.00060435      -4.46150449 F F F       0.90844997      -0.31744032       0.15524206
Ge      11.49378749      45.95143469       5.74477889       0.00051125       0.00184836       0.00124570      -4.43890439 F F F      -0.68405993       1.11754787       1.16654926
Ge      13.02066637       1.30930081       7.13571611      -0.00068883       0.00070821      -0.00303200      -4.50495801 F F F      -0.44979987      -0.25795491       0.17111840
Ge      11.61368031       2.74574150       8.65582092      -0.00608486       0.00146228      -0.00251989      -4.46779071 F F F       0.54084914       0.64502954      -0.11558505
Ge      13.12534102       4.11954721      10.21993830       0.00109538      -0.00149506      -0.00008749      -4.48670824 F F F      -0.55377720      -0.07820146      -0.09013292
Ge      14.46817362      46.16774048       8.65285142       0.00060572      -0.00175582       0.00064113      -4.50504239 F F F       0.47111635      -0.19605353      -0.24736301
Ge      16.00404631       1.40468458      10.04261190       0.00115127      -0.00135085       0.00082454      -4.49435321 F F F      -0.48960528      -0.34474746       0.51413690
Ge      14.49871014       2.73333266       5.75831330      -0.00089083       0.00144696      -0.00167072      -4.47681067 F F F       0.37854245      -0.11331937      -0.55147038
Ge      15.86749294       4.32289287       7.07987014      -0.00041454      -0.00155664      -0.00213811      -4.48813881 F F F       0.54763019       0.12113764      -0.03703906
Ge      11.53603539      46.02750679      11.56524687       0.00275264      -0.00069204      -0.00247225      -4.50023352 F F F       0.00383761       0.93431140       0.20095835
Ge      12.96589004       1.34462474      13.10586922      -0.00024180      -0.00067722       0.00017000      -4.46753525 F F F      -0.01595097       0.08493563      -0.65420756
Ge      11.66505958       2.88847367      14.56402348      -0.00190209       0.00077299       0.00120800      -4.48524735 F F F      -0.20250083      -0.18452049      -0.09952580
Ge      13.03777849       4.40416081      15.97024498      -0.00133934      -0.00046792      -0.00016758      -4.46828865 F F F      -0.13060754      -0.79593336       0.58659117
Ge      14.58509295       0.05771636      14.39986747       0.00010496       0.00015752      -0.00176208      -4.47174279 F F F       0.03159009      -0.79007707       0.32273292
Ge      15.93168035       1.40847239      16.02474176       0.00062329       0.00037319       0.00016473      -4.44974947 F F F      -0.28266313       1.10084278      -0.96041253
Ge      14.57859281       2.69826713      11.69898923      -0.00034736       0.00020810      -0.00089733      -4.49317902 F F F      -0.21478831       0.19373418      -0.38249368
Ge      15.86719801       4.40249202      13.01406240       0.00349619       0.00095215       0.00199162      -4.48557107 F F F       0.18646586      -0.09079922      -0.28895450
Ge      11.55556666      46.04028543      17.21738183       0.00125800       0.00223560       0.00122074      -4.47920479 F F F       0.07284946       0.10050564       0.60555877
Ge      12.90940063       1.32957583      18.79758653      -0.00202201       0.00290639      -0.00029816      -4.49706574 F F F      -0.27398302       0.59974874      -0.20782654
Ge      11.41535613       2.93536056      20.18481699       0.00212396      -0.00046562       0.00055008      -4.50150587 F F F       0.61918075      -0.46788063       0.04779875
Ge      12.87644967       4.28859183      21.75403757       0.00081056      -0.00157858      -0.00074064      -4.47278239 F F F       0.26866085       0.60146929      -0.49873100
Ge      14.36081504       0.02367075      20.30195536       0.00212406      -0.00070564      -0.00471031      -4.48658546 F F F      -0.32072836      -0.01983659       0.26964392
Ge      15.77086261       1.57821348      21.68071478       0.00171213      -0.00110919      -0.00026815      -4.49311245 F F F       0.48500115      -0.00282183       0.01566126
Ge      14.47069418       2.85405218      17.48246326      -0.00074928       0.00057121       0.00088337      -4.50164280 F F F      -0.49033829      -0.07752742      -0.32582468
Ge      15.84409512       4.30189727      18.95456323       0.00221025      -0.00242512       0.00029382      -4.51158225 F F F       0.17350218       0.15514134       0.08759958
Ge      11.48487385       0.09873934      23.14221677       0.00153582       0.00108367       0.00015887      -4.49309613 F F F       0.07873748      -0.54153368       0.29989438
Ge      13.01233636       1.55980941      24.49892287      -0.00221510      -0.00187143       0.00295496      -4.49478992 F F F       0.27416898      -0.31420821       0.16350919
Ge      11.44138381       2.82647347      25.90480122      -0.00109830       0.00131521       0.00224384      -4.45867242 F F F       0.36728581       0.76015642       0.32146142
Ge      12.81980205       4.44773268      27.35544972       0.00085337      -0.00107936      -0.00101972      -4.49383410 F F F       0.03083632      -0.46463389      -0.04441052
Ge      14.38837847       0.08267812      26.07082878      -0.00225588       0.00297649      -0.00089774      -4.50093214 F F F      -0.00755978       0.31078995      -0.60204257
Ge      15.71065077       1.62964733      27.49194744      -0.00064384       0.00128221      -0.00145926      -4.50488147 F F F       0.32266897      -0.12307591      -0.00232338
Ge      14.54537779       3.11275595      23.21607629       0.00087930      -0.00200641       0.00299381      -4.48323465 F F F      -0.54234586      -0.37159131      -0.18380733
Ge      16.06634944       4.51869580      24.61393011      -0.00084678      -0.00073611       0.00272841      -4.41180541 F F F      -0.07832888      -0.53861070      -0.51038080
Ge      11.48332045       0.01472228      28.89458393       0.00306868       0.00464989      -0.00008983      -4.49726585 F F F      -0.34513329       0.13224171       0.42489350
Ge      12.91396696       1.58326683      30.23959916       0.00142519       0.00003334       0.00055641      -4.42146696 F F F       0.09927351      -0.80423516      -0.30754973
Ge      11.55079633       2.98739591      31.60246680       0.00051347       0.00107397       0.00128623      -4.40929737 F F F      -0.70179258      -0.14825728       0.74964350
Ge      12.76445836       4.30665618      33.26929464       0.00177316      -0.00054216       0.00227662      -4.48228569 F F F       0.17898239       0.40798724       0.04541782
Ge      14.14290191       0.05854502      31.72744985      -0.00272830      -0.00120756       0.00192554      -4.46213064 F F F       1.40092960      -0.12756237      -0.24764370
Ge      15.68153291       1.58212939      33.08064722       0.00208017       0.00017424       0.00048470      -4.48544274 F F F      -0.49691296      -0.28670705       0.62206599
Ge      14.24874722       3.10511532      28.86735382      -0.00198262      -0.00009514      -0.00091149      -4.50273548 F F F       0.56183895       0.04724187      -0.01075728
Ge      15.71720942       4.51242813      30.37564372      -0.00062047      -0.00345737       0.00028371      -4.50427907 F F F       0.17752446      -0.48293738      -0.13125785
Ge      11.33885803       0.03438342      34.63735896      -0.00060979      -0.00001252      -0.00086910      -4.51079846 F F F       0.12172098       0.12265861      -0.10812815
Ge      12.83201958       1.42505268      36.06309972       0.00225573       0.00148581       0.00179701      -4.48408078 F F F      -0.23568012      -0.18960241       0.76386762
Ge      11.43430966       2.96596015      37.55738333       0.00104092       0.00098869      -0.00092104      -4.50840989 F F F       0.31485451      -0.29606618      -0.32623047
Ge      12.92925079       4.36319501      38.95896932      -0.00000294      -0.00094814       0.00170624      -4.50128920 F F F       0.02387634       0.09613890       0.10804279
Ge      14.42815697       0.05747628      37.48821149       0.00211698       0.00067781       0.00190801      -4.48770859 F F F      -0.40217435      -0.42804135      -0.20684582
Ge      15.85482451       1.40320846      38.94807221      -0.00090386      -0.00197419       0.00215107      -4.48846404 F F F       0.34272583       0.58932487       0.00302936
Ge      14.18860554       2.90526844      34.73545014       0.00065051      -0.00051054       0.00197076      -4.48491300 F F F       0.78101148       0.15300411      -0.75375188
Ge      15.64278415       4.37895864      36.14616766      -0.00495347       0.00002329       0.00328980      -4.45990084 F F F       0.71013896      -0.84383188       0.09208461
Ge      11.44095144       0.02912741      40.43821425      -0.00014130      -0.00009452       0.00083862      -4.43911566 F F F       1.37895757      -0.23550691       0.11400518
Ge      12.98876574       1.41891696      41.89799536      -0.00326221      -0.00033238      -0.00220835      -4.52257260 F F F      -0.05090064      -0.01245701      -0.17262162
Ge      11.45244265       2.78375690      43.35183445      -0.00350236       0.00222827       0.00040110      -4.46901506 F F F       0.82194932       0.31033240      -0.13305300
Ge      12.91658244       4.39776002      44.72238013       0.00311916       0.00207651      -0.00239691      -4.45765887 F F F       0.41292750      -0.60522563      -0.00541931
Ge      14.47555020      46.09406390      43.27130734       0.00503809      -0.00197025       0.00256728      -4.49796041 F F F      -0.70570877      -0.10310214      -0.00186536
Ge      15.86767225       1.37300424      44.68364370      -0.00157406       0.00486346       0.00343179      -4.46007804 F F F       0.14424014       0.11242354       0.03085477
Ge      14.37232226       2.88764031      40.32594090      -0.00263332       0.00140948      -0.00166553      -4.49691693 F F F      -0.24141364      -0.57127178       0.19142121
Ge      15.84132808       4.17076662      41.80350659      -0.00284792       0.00209293       0.00236177      -4.43507297 F F F      -0.08498611       0.27821421       0.80326099
Ge      11.57341082       5.81877117       0.05629898      -0.00103712       0.00205753       0.00031271      -4.49491707 F F F      -0.18793653      -0.05114250       0.19586460
Ge      13.10416781       7.35019937       1.33410497      -0.00278727       0.00277426      -0.00000829      -4.45450735 F F F      -0.41676552      -1.19082964       0.71969997
Ge      11.60889917       8.56812958       2.86302903      -0.00345545      -0.00074258      -0.00006380      -4.49544996 F F F      -0.64998194       0.12005709       0.16330638
Ge      12.95948997      10.07298980       4.25754043      -0.00339506      -0.00214190      -0.00125098      -4.48390757 F F F       0.42060086       0.25752391      -0.07303438
Ge      14.49912957       5.75800913       2.80287511       0.00172536      -0.00013996       0.00183622      -4.49025900 F F F      -0.33725503       0.48149154       0.30891189
Ge      15.93515359       7.31934318       4.19724202       0.00245498      -0.00120944      -0.00092713      -4.49040685 F F F      -0.32516904      -0.52516698       0.25475851
Ge      14.44564630       8.84091294       0.03929496      -0.00057555      -0.00293579      -0.00106250      -4.39547497 F F F       0.02359505      -0.43416372      -1.36253801
Ge      15.83642115      10.10984683       1.44502210       0.00026316      -0.00345269      -0.00329274      -4.46435679 F F F       0.97505845       0.96100568       0.77132523
Ge      11.68615971       5.72680149       5.72001041       0.00142922      -0.00014300      -0.00124318      -4.49585043 F F F      -0.27173714      -0.46442883      -0.22242867
Ge      13.09437311       7.12990783       7.16864445      -0.00074504       0.00217671       0.00102377      -4.47446697 F F F      -0.23773127       0.00715352       0.11649996
Ge      11.57569872       8.64016124       8.46712464      -0.00060310      -0.00107919      -0.00167038      -4.49827763 F F F      -0.58340245      -0.17906495      -0.02715757
Ge      13.02737039      10.00087885       9.88704089       0.00019206       0.00208863      -0.00127399      -4.47239323 F F F       0.07805747       0.59887570       0.37279063
Ge      14.37290722       5.49990978       8.62689674       0.00067788       0.00059509      -0.00096429      -4.44191206 F F F       0.28950249       0.88813505       0.03071121
Ge      15.69640639       7.16970164      10.00823188      -0.00190294       0.00245553       0.00160774      -4.50764978 F F F       0.58511290      -0.17636976       0.08767425
Ge      14.39296251       8.64114409       5.67866000      -0.00150789      -0.00080265      -0.00455985      -4.51074834 F F F       0.50330985       0.12248426       0.18425227
Ge      15.83403335      10.09928835       7.16894656      -0.00192702       0.00350878      -0.00007004      -4.51275607 F F F       0.43950438      -0.41794038      -0.44980711
Ge      11.66700958       5.77385419      11.50473062      -0.00397802      -0.00094748      -0.00213043      -4.46447884 F F F      -0.75220771      -0.62161409       0.04312905
Ge      12.83680097       7.32183482      12.98033033      -0.00178954      -0.00133382       0.00086188      -4.46142395 F F F       1.19089418      -0.19745119       0.21581056
Ge      11.54618624       8.70266486      14.56118850      -0.00245287       0.00121981      -0.00089270      -4.42147111 F F F      -0.74299385      -0.34299657      -0.90103153
Ge      12.93847015      10.14178193      15.85849108      -0.00036609      -0.00040559       0.00070838      -4.47223860 F F F       0.83206746       0.61328199       0.18758114
Ge      14.36142947       5.74590650      14.44355210      -0.00011472       0.00215547      -0.00193827      -4.46348489 F F F      -0.16891516       0.77353773      -0.69174894
Ge      15.86387828       7.17212729      15.78040604      -0.00201299      -0.00047487      -0.00322028      -4.49290201 F F F      -0.17652750       0.57160615       0.25589972
Ge      14.39397956       8.70211083      11.48347782       0.00016322      -0.00097526      -0.00072840      -4.49663358 F F F       0.05548240      -0.18162081       0.39140950
Ge      16.00089087      10.15956093      12.84417034      -0.00083421       0.00409191       0.00030922      -4.46867121 F F F      -1.00466188      -0.41773277       0.42741530
Ge      11.35842872       5.67526877      17.32990018       0.00204391      -0.00016759       0.00296734      -4.49307731 F F F       0.35471795       0.61699845      -0.16908480
Ge      12.92937669       7.15824253      18.68727970       0.00130665      -0.00257106      -0.00059741      -4.49911636 F F F      -0.42350635       0.27554792      -0.17322456
Ge      11.39905757       8.64547899      20.08178385       0.00305421      -0.00056230      -0.00142112      -4.49096695 F F F       0.68045883      -0.47585809       0.20716143
Ge      12.88326016      10.07808594      21.49118128      -0.00009216      -0.00090434       0.00541245      -4.49866881 F F F      -0.16160013       0.29336678       0.44714626
Ge      14.32753782       5.85492051      20.24832769      -0.00358573       0.00064529       0.00105745      -4.48817373 F F F      -0.24599555      -0.70114629       0.20909362
Ge      15.65638503       7.40031572      21.63563426      -0.00142439      -0.00046175       0.00293701      -4.45967930 F F F       1.11382137      -0.84164455      -0.12124327
Ge      14.39334465       8.65456796      17.23214812      -0.00123214       0.00133378      -0.00346286      -4.50608603 F F F       0.03482064      -0.04692553       0.35697589
Ge      15.71368128      10.21155305      18.76948697       0.00396427      -0.00178116      -0.00173534      -4.50531049 F F F       0.23852910      -0.41581993      -0.31187543
Ge      11.43412099       5.86507438      23.04132663      -0.00318799       0.00101856       0.00218644      -4.48899787 F F F       0.16499536      -0.17172824       0.68540387
Ge      13.00599888       7.19704599      24.59034354       0.00129033      -0.00092185       0.00184487      -4.50625055 F F F      -0.00563596      -0.29985043      -0.23756078
Ge      11.57271556       8.62996033      26.03585523       0.00248963       0.00491256       0.00049998      -4.49631623 F F F      -0.65177279      -0.22963239      -0.20921502
Ge      12.94547686      10.07405373      27.45190446      -0.00131299      -0.00036173       0.00174431      -4.43525797 F F F      -0.22754271       1.24205550      -0.34106222
Ge      14.53543627       5.68808736      26.03978847       0.00051609      -0.00155927       0.00015788      -4.43398970 F F F      -0.73111032       1.41482777       0.36859183
Ge      15.77725949       7.34657362      27.61460987      -0.00053285      -0.00171060       0.00101069      -4.50290081 F F F      -0.54056583       0.00160995      -0.42052831
Ge      14.28186207       8.73380478      23.06102749       0.00327483       0.00056012      -0.00172472      -4.44478116 F F F      -0.44656542       0.19508316       0.50587160
Ge      15.72405423      10.16085287      24.48427959      -0.00044919      -0.00265699      -0.00132021      -4.51225135 F F F       0.15231986       0.32828057       0.40666774
Ge      11.44901151       5.86257969      28.89199137       0.00655451      -0.00035058      -0.00062764      -4.46209486 F F F      -0.59573805      -0.49892684      -0.71885823
Ge      12.74176614       7.29484588      30.29499078      -0.00107492       0.00117993      -0.00010670      -4.44716074 F F F       0.78573862      -0.06477717       1.11330165
Ge      11.41207246       8.54035213      31.97516628      -0.00058167      -0.00054873       0.00017948      -4.41386495 F F F       0.62776705       0.84872999      -0.68611257
Ge      13.02004441      10.05316645      33.16808295      -0.00360019      -0.00077465       0.00236386      -4.49372655 F F F       0.11736085      -0.04328587       0.14633048
Ge      14.15786357       5.76518615      31.83827158       0.00084790      -0.00262681       0.00336785      -4.49354890 F F F       0.36805346       0.58284773      -0.24734174
Ge      15.80111367       7.12178478      33.21379763      -0.00195900      -0.00030842       0.00066608      -4.45857791 F F F      -0.33268562       0.69197271      -0.54519888
Ge      14.19420710       8.86271589      29.05254011      -0.00037714       0.00152711       0.00300060      -4.40856653 F F F       1.19993827      -0.91941908      -0.14176360
Ge      15.88416206      10.25741869      30.23240255       0.00214306       0.00072101       0.00236521      -4.45981367 F F F      -0.49835141      -0.22683415       0.61764809
Ge      11.37411304       5.86554560      34.64170787       0.00038966      -0.00058388      -0.00055731      -4.48184335 F F F       0.63590961      -0.67063503       0.46445658
Ge      12.96918247       7.19999804      36.08033692       0.00119478      -0.00268517      -0.00044356      -4.48107425 F F F      -0.07602969      -0.24221034      -0.13989958
Ge      11.51004981       8.53754144      37.48876378       0.00204254      -0.00107266      -0.00234294      -4.49568744 F F F      -0.34566538       0.43671532       0.20983449
Ge      12.80598936      10.06032046      38.96842394      -0.00349497      -0.00168719       0.00054094      -4.50739875 F F F       0.54917841      -0.20669106       0.34855600
Ge      14.42256854       5.86748940      37.59375170       0.00121600       0.00072488       0.00067203      -4.47134873 F F F      -0.64741955      -0.05658545       0.17116319
Ge      15.86756729       7.32968656      38.94573559      -0.00043391       0.00049996      -0.00047726      -4.43768903 F F F       0.07360455      -0.99309462       0.76308985
Ge      14.41954597       8.59873222      34.67537121      -0.00217739      -0.00069454      -0.00123239      -4.50684356 F F F       0.28078509       0.61797993      -0.20775814
Ge      15.87392119      10.15445186      36.10163181       0.00117410       0.00456499       0.00170854      -4.49142426 F F F       0.21093742      -0.87240564      -0.20685325
Ge      11.41283947       5.55088211      40.54648107      -0.00114346       0.00183543       0.00093498      -4.47402267 F F F       0.61923894       0.11268568       0.12805839
Ge      13.03870528       6.98613471      41.93851400      -0.00170264      -0.00034194       0.00117631      -4.46963778 F F F       0.65499610       0.16858450      -0.50100186
Ge      11.77281313       8.57130505      43.29236594       0.00034707      -0.00056519      -0.00309481      -4.44332561 F F F      -0.39810871       0.21156011       0.42709244
Ge      13.06148081      10.23838183      44.65223689      -0.00099621      -0.00176488      -0.00386749      -4.51422909 F F F      -0.01850427      -0.13170101       0.28588831
Ge      14.66573484       5.70697183      43.46090170       0.00030051       0.00255142       0.00258663      -4.45175062 F F F      -0.66607303       0.18031326      -0.41842256
Ge      16.02690221       7.27678009      44.94891618       0.00127259       0.00224421      -0.00175029      -4.48073522 F F F      -0.43116556      -0.05798135      -0.47008177
Ge      14.41265417       8.62434354      40.39522963      -0.00154726       0.00320677       0.00038915      -4.47651944 F F F      -0.79305591       0.22688281       0.36769748
Ge      15.97452255      10.08034253      41.74366851      -0.00263563       0.00031435      -0.00001269      -4.49414847 F F F      -0.26709704       0.07671094       0.26642819
Ge      11.58914117      11.58778022       0.06336398       0.00132074       0.00174152       0.00031362      -4.49601115 F F F       0.24346640       0.55019533      -0.78946255
Ge      13.01005916      13.04565526       1.52293164      -0.00003337       0.00271468      -0.00060780      -4.48953273 F F F      -0.39319294       0.64416506      -0.65285281
Ge      11.49105698      14.47111479       2.95113220       0.00239736      -0.00027031       0.00233629      -4.46990089 F F F       0.66258979       0.19707163      -0.58412849
Ge      13.12914826      15.74409368       4.37142158       0.00064513       0.00208236      -0.00333346      -4.46601490 F F F      -0.12156167       0.60082977      -0.52032055
Ge      14.42074783      11.65453179       2.89418717      -0.00269144      -0.00292810       0.00148306      -4.47633859 F F F       0.20205339      -0.98058232       0.11511098
Ge      15.87594406      12.96376937       4.34677855       0.00709138       0.00054326       0.00128072      -4.50662286 F F F       0.60545368       0.19375016      -0.07208703
Ge      14.32733958      14.66382650       0.02764427      -0.00403812      -0.00071272       0.00037081      -4.47194755 F F F      -0.26671634      -1.06670398      -0.66992939
Ge      15.84140952      15.87824521       1.40991593      -0.00102561      -0.00042766      -0.00305030      -4.44533347 F F F       0.19815834       1.21553779       0.51704342
Ge      11.64048931      11.57084822       5.67808479       0.00103669       0.00403056       0.00122148      -4.48846537 F F F      -0.75542686       0.10473440      -0.19745812
Ge      12.94571224      13.04417797       7.16454336       0.00181077      -0.00030869       0.00209539      -4.49156192 F F F       0.44254456      -0.18344705       0.46458756
Ge      11.54346143      14.59027407       8.55959208      -0.00202770      -0.00007952       0.00304405      -4.46735817 F F F       0.16658353      -0.70435299       1.09313232
Ge      12.90285133      15.94554762      10.25755561       0.00463569      -0.00070332      -0.00052728      -4.49165346 F F F       0.48075263      -0.24691736      -0.95452244
Ge      14.49375823      11.56772600       8.59371458       0.00095424      -0.00106036      -0.00001029      -4.48092444 F F F      -0.86339957       0.08144037      -0.28180442
Ge      15.76105524      13.01632075      10.09256028       0.00046801       0.00115469      -0.00240983      -4.47671390 F F F       0.62695436       0.00318874      -0.01807710
Ge      14.51416853      14.40315406       5.83061719       0.00121663       0.00094008      -0.00074513      -4.48200827 F F F       0.45899256      -0.01979075       0.29725205
Ge      16.01429229      15.82238678       7.33927965       0.00086725      -0.00016469      -0.00037826      -4.47803148 F F F      -1.15595519       0.26936960      -0.33758172
Ge      11.66979568      11.50049359      11.37869898       0.00058024      -0.00220021      -0.00380514      -4.49990451 F F F      -0.17077568      -0.02677358       0.56882942
Ge      13.04848688      12.95869659      12.95730769       0.00029882      -0.00192186       0.00047965      -4.49283045 F F F      -0.32915815      -0.09203774       0.17412372
Ge      11.57709072      14.51706001      14.36061648       0.00332653       0.00171937       0.00083830      -4.50848881 F F F      -0.06766101      -0.32109095      -0.25970993
Ge      12.92397486      15.95025002      15.84465041       0.00280756       0.00076174      -0.00103982      -4.49559083 F F F       0.24909726       0.33066657      -0.03638923
Ge      14.53612742      11.55862821      14.39884556       0.00180714       0.00096195      -0.00064715      -4.50587142 F F F      -0.30523915      -0.09075579       0.12087884
Ge      15.82571069      13.06585507      15.96961257      -0.00237102      -0.00094642      -0.00100136      -4.47674261 F F F      -0.06088363       0.39518800      -0.56698390
Ge      14.41038543      14.44904075      11.56488721      -0.00071053       0.00069429      -0.00178422      -4.48598624 F F F      -0.00183877       0.52535435       0.10442149
Ge      15.86986302      16.04766085      12.89195781       0.00005619       0.00144998       0.00081657      -4.46040684 F F F       0.71144197      -1.09871548      -0.26452311
Ge      11.50128169      11.65564553      17.25749589       0.00180321      -0.00139528      -0.00024471      -4.41141399 F F F      -0.83903458      -1.04958947      -0.88986761
Ge      12.78353308      13.02582104      18.60166690      -0.00190777       0.00329550       0.00083467      -4.40288297 F F F       1.73169984       1.16096023       1.18932892
Ge      11.37725832      14.35579149      20.13884162       0.00089656      -0.00273211       0.00033020      -4.49243664 F F F       0.19184005      -0.04259665       0.18587601
Ge      12.90816478      15.77276801      21.55315766      -0.00094892      -0.00231844       0.00086198      -4.49976352 F F F       0.12100827       0.18990259       0.34016731
Ge      14.28365722      11.68362425      20.18004381       0.00118369      -0.00068156       0.00112264      -4.50669173 F F F      -0.04079284      -0.09127502      -0.32911840
Ge      15.87236331      13.01206748      21.59764071      -0.00126807       0.00122271       0.00110429      -4.47546767 F F F      -0.42498797      -0.00905918      -0.17620937
Ge      14.38769234      14.67714443      17.36174910       0.00014889       0.00249306      -0.00040962      -4.46000270 F F F      -0.59994615      -1.34639148      -0.41754113
Ge      15.80927485      16.04417913      18.72519416       0.00084005      -0.00215006      -0.00023976      -4.46882811 F F F       0.76138869      -0.00983770       0.51992327
Ge      11.49485162      11.48935427      23.07040218      -0.00059563      -0.00461877       0.00059426      -4.47471240 F F F       0.29290923       0.50080692      -0.23206758
Ge      12.85231380      13.04482480      24.61193965       0.00073766      -0.00095998       0.00047273      -4.48336649 F F F       0.55452133      -0.76361779      -0.60653933
Ge      11.39774533      14.48868327      25.91045369       0.00350860      -0.00120347       0.00251949      -4.46211265 F F F      -0.20910720       0.68218878      -0.46001219
Ge      12.84798384      15.85111137      27.36930376       0.00034952      -0.00283293      -0.00184563      -4.47860658 F F F      -0.55649529       0.58138598       0.55295896
Ge      14.43198697      11.64408599      26.08127994       0.00102752       0.00080712      -0.00124600      -4.49028222 F F F      -0.64612844      -0.35627804      -0.67332881
Ge      15.73957246      13.23519555      27.39705202       0.00225613      -0.00122703       0.00072788      -4.46585536 F F F       0.81322988      -0.59890524       0.40546900
Ge      14.32872920      14.32926172      23.02543665       0.00225496       0.00156636      -0.00151055      -4.46247581 F F F       0.32161878       0.73096059       0.67226236
Ge      15.86677136      15.94375684      24.54583873       0.00496690      -0.00165902      -0.00006254      -4.46996978 F F F      -0.34800037      -0.40395878      -0.52677017
Ge      11.56341822      11.67565578      28.85045864      -0.00126091      -0.00351508      -0.00043809      -4.44025465 F F F      -0.53449559      -1.11728371      -0.22417335
Ge      12.88922208      12.95413012      30.35315279       0.00292308       0.00003689      -0.00220817      -4.43677940 F F F       0.25543696       0.79149673       0.22956682
Ge      11.43818789      14.53572668      31.66854623      -0.00020549       0.00317657      -0.00075205      -4.48444284 F F F      -0.31623961      -0.66443217       0.07304912
Ge      12.80702356      15.96187345      33.05902577      -0.00034639       0.00046084      -0.00116992      -4.48959305 F F F       0.02772138       0.18567932       0.94556442
Ge      14.43972853      11.65861603      31.75231181       0.00022372       0.00081565      -0.00171131      -4.49948458 F F F       0.03001575      -0.67432017       0.04335992
Ge      15.83938473      13.08570385      33.18149957      -0.00266916       0.00161837       0.00104248      -4.50212372 F F F       0.37756311       0.17301022       0.31342963
Ge      14.16949270      14.45755297      28.86914303       0.00143932       0.00087937       0.00055574      -4.46450216 F F F       0.62171513      -0.04734100       0.11359972
Ge      15.76427239      15.79500909      30.24365332      -0.00115847      -0.00090565      -0.00289527      -4.49733147 F F F       0.17256244       0.51749032       0.36114254
Ge      11.53323880      11.44543050      34.59192019      -0.00002635      -0.00137785       0.00372979      -4.49770429 F F F       0.09605124       0.47624715       0.21032093
Ge      13.05492513      12.91788663      36.00730243       0.00033194       0.00221278      -0.00286669      -4.47414646 F F F      -0.36285153      -0.54956456       0.48338838
Ge      11.73294306      14.43821847      37.48345003      -0.00050212       0.00347790       0.00041261      -4.48243799 F F F      -0.41849664       0.00325370      -0.50437329
Ge      13.00186070      16.01177666      38.86126667       0.00020903       0.00258296      -0.00236759      -4.48920196 F F F       0.13716866      -0.31204536       0.67958310
Ge      14.40548282      11.38407984      37.57926943      -0.00237967       0.00218835      -0.00063176      -4.43954501 F F F      -0.75596935       0.40515859      -0.41580940
Ge      15.76623340      12.87194767      38.89919374       0.00123402       0.00140403      -0.00012422      -4.45966108 F F F       1.20467185       0.63993605       0.55748417
Ge      14.21892473      14.48758878      34.56412389      -0.00131790      -0.00243976      -0.00159690      -4.39528086 F F F       0.10851495      -0.48149126      -1.06541666
Ge      15.84317571      15.66118313      35.83094165      -0.00396878       0.00123526      -0.00063076      -4.42827864 F F F       0.13862464       0.77831030       1.36197116
Ge      11.47266781      11.63438014      40.39801491      -0.00131295      -0.00315980      -0.00013692      -4.45356441 F F F       0.63219037      -0.74926081       0.86129266
Ge      13.08766508      13.03500791      41.81315357       0.00153210      -0.00022706      -0.00105428      -4.49136583 F F F       0.04155784      -0.03534651      -0.77739165
Ge      11.67166691      14.41567849      43.25039331      -0.00344947       0.00077780      -0.00140671      -4.46396020 F F F      -0.43296785      -0.04473982       0.72131685
Ge      12.93343967      16.05592859      44.64623776       0.00157085       0.00071358       0.00324941      -4.47570609 F F F       0.24887177      -0.71532844       0.26149702
Ge      14.55629861      11.60835301      43.17876718      -0.00050271       0.00096474       0.00170412      -4.49236146 F F F       0.11449197      -0.07984788       0.34791560
Ge      15.83463964      13.15371041      44.73289577      -0.00012398       0.00011576       0.00076193      -4.49525575 F F F      -0.21203231      -0.20640810       0.08116189
Ge      14.52149266      14.55305089      40.30987341      -0.00026238       0.00039029      -0.00013701      -4.50590175 F F F      -0.47013337      -0.28548457       0.05721876
Ge      15.98929095      15.90266879      41.81720218       0.00050646       0.00004335       0.00015494      -4.49055853 F F F      -0.46636453       0.23094833      -0.12922596
Ge      11.54437323      17.41912064      46.12245658      -0.00168954       0.00086538       0.00441820      -4.50109668 F F F      -0.10493071       0.37797906       0.44254120
Ge      12.95130578      18.77156259       1.52683152       0.00113790      -0.00256390       0.00243407      -4.48496334 F F F       0.33202268       0.11517364      -0.22116537
Ge      11.53552737      20.16812492       3.01520456       0.00226413       0.00110891       0.00113469      -4.51221647 F F F       0.08308366       0.25914307      -0.39774524
Ge      13.02806241      21.79329511       4.22646671      -0.00069537      -0.00365456       0.00179842      -4.42564079 F F F       0.31623155      -1.25454959      -0.19728056
Ge      14.42461398      17.42235389       2.96237967      -0.00019071      -0.00477254       0.00313798      -4.49461393 F F F       0.59527614      -0.48439094       0.03310204
Ge      15.91629176      19.00232426       4.38918854      -0.00031300       0.00050812      -0.00020989      -4.43479206 F F F       0.06038528      -1.48997469      -0.42860108
Ge      14.64112214      20.18340164       0.22587491      -0.00137764      -0.00047418      -0.00141750      -4.45865707 F F F      -1.27892033      -0.03423163      -0.93399210
Ge      16.16089502      21.62831610       1.44181705       0.00292377       0.00064741       0.00026897      -4.42987307 F F F       0.02569176       0.37565981       0.30218140
Ge      11.82110651      17.14387870       5.89364314       0.00024737       0.00106296       0.00152616      -4.46025610 F F F      -0.87891796       0.38034163      -0.31237471
Ge      13.12393710      18.69234668       7.27618240      -0.00099082       0.00193624      -0.00180130      -4.46696223 F F F      -0.08419035       0.48758322      -0.19073509
Ge      11.62424365      20.21839363       8.60146941       0.00070211       0.00081305       0.00060387      -4.50209477 F F F       0.00973619       0.30254936      -0.33927888
Ge      12.98541024      21.71887185      10.07558011      -0.00113632       0.00299273       0.00338949      -4.51836966 F F F       0.19239721      -0.21995314       0.12362342
Ge      14.46200364      17.26998287       8.75424540       0.00225133      -0.00093597      -0.00243534      -4.51629262 F F F       0.33716682      -0.30320447       0.14142190
Ge      15.90140413      18.79810608      10.09629423      -0.00351660       0.00546256       0.00445334      -4.48434768 F F F      -0.18813683      -0.04798057       0.09453266
Ge      14.35660759      20.24687002       5.70618570       0.00206840      -0.00122461       0.00163399      -4.46977821 F F F       0.05891524       0.57216595       0.84955551
Ge      15.92824427      21.60262116       7.25649509      -0.00181584       0.00115173      -0.00089292      -4.49744348 F F F      -0.13971563      -0.20348493      -0.69304739
Ge      11.65098799      17.58857977      11.54750101      -0.00321387      -0.00143560      -0.00060991      -4.41641629 F F F      -0.85797850      -0.85094567      -0.15663571
Ge      13.03304901      18.92602035      12.94429465       0.00121899       0.00093554       0.00114513      -4.44360511 F F F       0.27678913      -0.00446595       1.36100952
Ge      11.35393925      20.29640770      14.40326637       0.00120972      -0.00260079       0.00226110      -4.48191904 F F F       1.19501160      -0.29084524       0.01047026
Ge      12.84292072      21.75863454      15.84197779       0.00221960       0.00161627      -0.00324276      -4.48631050 F F F       0.06311426      -0.78138386       0.40752922
Ge      14.51854772      17.28488314      14.42764829       0.00011419      -0.00132064       0.00140932      -4.44032057 F F F      -1.02916499       1.16653646       0.18480233
Ge      15.80893196      18.87640192      15.89330271       0.00200009       0.00058566      -0.00127085      -4.47985211 F F F      -0.43507786       0.04828342       0.22727689
Ge      14.50694754      20.27576751      11.54364758      -0.00005140      -0.00134646       0.00210026      -4.49643731 F F F      -0.05338693       0.38446797      -0.22532651
Ge      15.91561503      21.64148816      13.11603525      -0.00384354       0.00278491      -0.00184687      -4.47687789 F F F       0.66766469      -0.45249526      -0.87462335
Ge      11.47099124      17.43870098      17.28543107      -0.00164258       0.00285373      -0.00074660      -4.47673429 F F F       0.34293074      -0.36905429      -0.00391910
Ge      12.81410617      18.73693610      18.90060587      -0.00022068       0.00028608       0.00111431      -4.47957083 F F F       0.92954954       0.54961833      -0.19332001
Ge      11.55065063      20.33579525      20.31951353       0.00083470      -0.00133690      -0.00076055      -4.46887684 F F F      -0.18223649       0.12623346      -0.23420893
Ge      13.10026040      21.70393591      21.81891164       0.00214226      -0.00118921       0.00150084      -4.49773709 F F F      -0.58176304       0.05749093      -0.69677863
Ge      14.43619644      17.33369484      20.30034398       0.00018052      -0.00048028      -0.00060801      -4.48516366 F F F      -0.90181048      -0.11594676      -0.47786715
Ge      15.75966337      18.73455604      21.77199216       0.00201100       0.00112099       0.00156228      -4.44459870 F F F       0.94646136       0.23994536      -0.49786444
Ge      14.27333562      20.33783863      17.45061864       0.00268158      -0.00038832       0.00047875      -4.44516404 F F F      -0.41098379      -0.99904324      -0.92736515
Ge      15.87311585      21.63743057      18.68555210       0.00158829       0.00031405      -0.00047421      -4.43399232 F F F       0.86914237       0.68243812       0.34928928
Ge      11.65519441      17.37724229      23.08509915      -0.00023924      -0.00190225      -0.00154471      -4.47124047 F F F      -0.25579071      -0.56996226      -0.51366331
Ge      13.06176136      18.73342428      24.54307521      -0.00150071      -0.00124698       0.00023590      -4.49074686 F F F      -0.23589702       0.07242010       0.52878152
Ge      11.45907286      20.19224474      25.81236516      -0.00222518       0.00130130       0.00138166      -4.45594252 F F F       0.77861676      -0.00374837       0.73036236
Ge      12.93698675      21.66139651      27.30050811       0.00105707       0.00073351       0.00019130      -4.49733905 F F F       0.05626395      -0.51029323       0.37134710
Ge      14.40071868      17.28947909      26.09739341       0.00314280       0.00095114       0.00087283      -4.49150990 F F F       0.02890735       0.02713729      -0.54837997
Ge      15.79079736      18.73916998      27.51385438      -0.00148048       0.00292735      -0.00031398      -4.50030026 F F F      -0.03405390       0.03920056       0.50585701
Ge      14.44472779      20.18797541      23.16697547      -0.00086264      -0.00015986      -0.00084223      -4.44782734 F F F       0.29398433       0.52395669       0.56769779
Ge      15.92599493      21.70099586      24.59396493       0.00115685       0.00112642      -0.00143472      -4.50858170 F F F      -0.44752552      -0.35232703       0.04269323
Ge      11.39238613      17.33527266      28.97595414       0.00057070       0.00012787      -0.00141070      -4.51076427 F F F       0.49913084       0.04331077      -0.43513467
Ge      13.00509675      18.76702875      30.32298849      -0.00034238       0.00122804      -0.00123973      -4.45992299 F F F      -0.99810412       0.07134533       0.07249582
Ge      11.59433395      20.32660463      31.76856076      -0.00151782       0.00004217      -0.00183627      -4.49544536 F F F      -0.24725582      -0.74968153      -0.19691742
Ge      12.90094081      21.92332822      33.12969617      -0.00131731      -0.00073240      -0.00138797      -4.42213247 F F F      -0.35800291      -0.91757212       0.42431371
Ge      14.33268488      17.32617480      31.74089886      -0.00083732      -0.00298669      -0.00025636      -4.47243704 F F F       1.11147059      -0.07992202      -0.19333890
Ge      15.86437801      18.81362617      33.12645044       0.00092368      -0.00013641       0.00135623      -4.49375789 F F F       0.08483116      -0.09869239      -0.44986122
Ge      14.35015178      20.24354014      28.95502727       0.00146127       0.00005451      -0.00133417      -4.48495482 F F F       0.26426223       0.18027142      -0.77448190
Ge      15.85551191      21.60143688      30.41302989       0.00032001       0.00102699      -0.00154600      -4.49899264 F F F       0.32920266       0.15040214      -0.30057980
Ge      11.35559520      17.43031678      34.57848719       0.00349672       0.00095880       0.00160006      -4.49059025 F F F       0.45637362      -0.23809578      -0.41826707
Ge      12.98729575      18.71233942      35.94290441      -0.00023236      -0.00087693      -0.00279110      -4.44340945 F F F      -0.04798815       0.30554033      -0.63283360
Ge      11.61714541      20.19428194      37.28292940      -0.00202869      -0.00075753      -0.00084744      -4.41530145 F F F      -0.98794279       0.46879696       1.29858729
Ge      13.02529358      21.60572549      38.92733900      -0.00069581      -0.00135848      -0.00106355      -4.47708984 F F F      -0.22031044      -0.30084261      -0.67495745
Ge      14.41692153      17.27626728      37.30590347      -0.00177636       0.00074348      -0.00170065      -4.46585981 F F F       0.39563919      -0.65144752      -0.26436784
Ge      15.83929286      18.59928563      38.75037221       0.00300081      -0.00110149      -0.00172503      -4.46212860 F F F      -0.00499094       0.99962658       0.79423793
Ge      14.24816696      20.22783816      34.36566653       0.00011105       0.00089637      -0.00213404      -4.47991527 F F F       0.28477063       0.05364607       0.58093753
Ge      15.69921010      21.56335255      35.90588995       0.00160157       0.00187733       0.00048827      -4.50448706 F F F       0.51412428       0.31716798       0.42178491
Ge      11.53948422      17.39547839      40.40919407      -0.00147260      -0.00085537       0.00251459      -4.45812296 F F F       0.63133758      -0.32769549      -0.06424056
Ge      13.16190140      18.66746385      41.78900687       0.00059246       0.00137145      -0.00102744      -4.48141359 F F F      -0.73471747       1.13359258      -0.03407145
Ge      11.70158320      20.30360780      43.25436415      -0.00027105      -0.00110994      -0.00002727      -4.44645405 F F F      -0.05008408      -0.72524930      -0.47007216
Ge      13.02219828      21.57564067      44.82420577       0.00099867      -0.00106001      -0.00085551      -4.42769735 F F F       1.20680143       0.06171794       0.07629717
Ge      14.51295361      17.34069891      43.29025492      -0.00056731       0.00127996      -0.00003981      -4.45321112 F F F       0.19656216      -0.45612883      -0.24414522
Ge      15.83713269      18.72136993      44.79112936       0.00000262       0.00056798      -0.00245394      -4.45293169 F F F       0.30326885       0.90788094      -0.35246074
Ge      14.50490269      20.20351906      40.33034545      -0.00335156      -0.00055691      -0.00117863      -4.49668633 F F F       0.49466259      -0.39341690       0.00444631
Ge      16.00114076      21.65053117      41.84103730       0.00161183       0.00004791      -0.00030828      -4.48526118 F F F      -0.48054856       0.00562865      -0.59541032
Ge      11.50975989      22.93297907      46.16934679       0.00475307       0.00100223       0.00264781      -4.49406414 F F F       0.29233485       0.39425395       0.54534436
Ge      13.10355934      24.33689199       1.44124074       0.00079429       0.00106358       0.00132564      -4.50171524 F F F      -0.45289787       0.25228898      -0.30932965
Ge      11.71772905      25.90186198       2.86775999       0.00031495      -0.00149970      -0.00015653      -4.48953828 F F F      -0.73069563       0.23850709      -0.40924987
Ge      13.03250734      27.36765352       4.37950840      -0.00397535       0.00025901       0.00018238      -4.42384564 F F F      -0.17249114      -0.34293352      -0.21097993
Ge      14.61617973      22.99801134       2.82218808       0.00240281      -0.00014110      -0.00179297      -4.47268953 F F F       0.26784307       0.37720339       0.36475671
Ge      15.86530746      24.60701711       4.36777919       0.00159024       0.00286885       0.00123819      -4.51100000 F F F       0.45140049      -0.76798555      -0.24148319
Ge      14.53316286      25.77518470      46.16431614      -0.00225137      -0.00063252       0.00113078      -4.45671660 F F F      -0.74724196       0.90687341       0.45448527
Ge      15.88759879      27.46331196       1.30921675       0.00091008      -0.00151445      -0.00103366      -4.48036067 F F F      -0.13373848      -0.26082789       0.70593522
Ge      11.65373800      23.06467075       5.67313370      -0.00212333       0.00127180      -0.00014241      -4.46122037 F F F      -0.59403550       0.86409616       0.34353533
Ge      13.04898277      24.48386056       7.16173450       0.00014993       0.00094231       0.00090167      -4.47985128 F F F      -0.02024747      -0.53694972       0.16329110
Ge      11.55389339      25.76738886       8.58799013       0.00324279       0.00018147       0.00064582      -4.49757787 F F F      -0.55087383       0.27654862       0.35515298
Ge      12.89779257      27.25919497       9.99788554       0.00019586       0.00355234      -0.00029238      -4.45132475 F F F       0.74856069      -0.61015105       0.53247807
Ge      14.50555532      23.05764288       8.59643482       0.00102255      -0.00286363      -0.00151139      -4.49728849 F F F      -0.26885954       0.16586095       0.39525222
Ge      15.94579263      24.42604982      10.09705962       0.00147021      -0.00019895      -0.00009206      -4.49045967 F F F      -0.62502422       0.24808523       0.38151315
Ge      14.40132991      25.94923468       5.80006997      -0.00221794      -0.00256085      -0.00070861      -4.47151037 F F F       0.78250241       0.56280663       0.20870844
Ge      15.95223372      27.42621476       7.22076545       0.00211622       0.00057940      -0.00134706      -4.51250672 F F F      -0.67008923      -0.17561677       0.10850819
Ge      11.45222752      23.09902709      11.53637704      -0.00054342       0.00144307      -0.00073046      -4.48552923 F F F       0.82477231      -0.02402636       0.05136922
Ge      12.94381872      24.48118515      13.06729832       0.00202787       0.00107043      -0.00053351      -4.48415185 F F F       0.19132159       0.08405630      -1.08950172
Ge      11.58367012      25.83037395      14.54297413       0.00084917      -0.00231231      -0.00079797      -4.45126179 F F F      -0.67604729       0.96812953      -0.53433794
Ge      12.89023142      27.39397336      15.91354749      -0.00135138      -0.00007405      -0.00042217      -4.49641390 F F F       0.14057876       0.48861768       0.02664550
Ge      14.36934456      22.98864201      14.35059617      -0.00029108       0.00228143      -0.00195886      -4.39917928 F F F      -0.13956834       0.33787070       0.65077328
Ge      15.79233777      24.40475855      15.78892258      -0.00090967       0.00091592      -0.00010018      -4.50318215 F F F       0.13385218       0.74856861       0.57784314
Ge      14.43360447      25.91480771      11.57435085       0.00208469       0.00045606      -0.00057208      -4.51150230 F F F       0.15983293       0.17338973      -0.13008320
Ge      15.93695668      27.49403323      13.03190824      -0.00166100       0.00050771      -0.00085900      -4.41463835 F F F      -1.30540741      -0.55533130      -0.54326391
Ge      11.40480413      23.05691574      17.38974649      -0.00096106      -0.00142591       0.00044402      -4.47590535 F F F       0.50370529       0.07767633       0.29910668
Ge      12.95009798      24.48971898      18.83066368      -0.00178656       0.00247092      -0.00183462      -4.51198562 F F F       0.08880361       0.18196364      -0.33135024
Ge      11.50798115      25.87889188      20.31474759      -0.00264585      -0.00028242      -0.00121212      -4.49036527 F F F      -0.48931127       0.30986009      -0.08777712
Ge      12.74699459      27.49483909      21.74009136      -0.00203335       0.00213319       0.00084261      -4.46319857 F F F       0.33137753       0.09298177      -0.15845488
Ge      14.48431312      23.04950148      20.18222220       0.00264506      -0.00056453      -0.00018599      -4.48666710 F F F      -0.20113273       0.26314661       0.36601272
Ge      15.77180400      24.56489517      21.72209249       0.00100003       0.00327713       0.00019188      -4.47893990 F F F      -0.37204369      -0.12640278       0.42816039
Ge      14.37049079      26.01259644      17.30948819      -0.00129967       0.00160777       0.00026631      -4.46375275 F F F       0.01985175      -1.04753381      -0.21196566
Ge      15.87331453      27.41562123      18.60674899       0.00152300       0.00004592       0.00126802      -4.46959453 F F F       0.10226627       0.52647780       0.61303240
Ge      11.49495805      23.04459754      23.21825573       0.00091540      -0.00169047       0.00291799      -4.46018619 F F F       0.43465673      -0.47761229       0.63613745
Ge      12.74547589      24.63154275      24.67683701      -0.00234159       0.00047040      -0.00143390      -4.45870411 F F F       1.18926060      -0.32144253      -0.90251888
Ge      11.46369922      26.03492331      26.11233795       0.00132610       0.00280205      -0.00332588      -4.45831120 F F F      -0.14640454       0.36075271       0.64864846
Ge      13.04626981      27.44962269      27.54093385      -0.00217730       0.00281628       0.00025254      -4.45118221 F F F       0.19956802      -0.39875662      -1.16462711
Ge      14.34225422      23.14014456      25.94214161      -0.00161388      -0.00068195      -0.00044950      -4.48181339 F F F       0.06996927       0.08895523      -0.22225279
Ge      15.75085296      24.51578182      27.42497882       0.00131632      -0.00120497       0.00039949      -4.50624575 F F F       0.63988877      -0.03443926       0.10431908
Ge      14.24037915      26.13780901      23.14257789       0.00001536      -0.00122033      -0.00233917      -4.48496036 F F F       0.42837690      -0.66962521       0.29371046
Ge      15.84154578      27.56557220      24.56277358      -0.00316723       0.00165888       0.00015747      -4.46795172 F F F      -0.63350565      -0.02267321      -0.41505201
Ge      11.61763630      23.11926852      28.80811536      -0.00154245       0.00424051      -0.00182987      -4.49507577 F F F      -0.80508278      -0.28491431      -0.09064125
Ge      12.95380340      24.51981286      30.32041428       0.00121289       0.00021730      -0.00004716      -4.49145055 F F F       0.11705825       0.46346144      -0.19199323
Ge      11.60657778      25.94366299      31.86968443      -0.00128241       0.00118902       0.00135412      -4.45854718 F F F       0.25466131       0.25898183      -0.57552076
Ge      13.02563785      27.46171964      33.18379283       0.00144409      -0.00164512       0.00221020      -4.49121269 F F F       0.21218361       0.49240251      -0.13663419
Ge      14.38759313      23.14147210      31.72449790       0.00030602       0.00039452       0.00019355      -4.44979129 F F F       1.13886216       0.40165830       0.01672920
Ge      15.95973880      24.52683600      33.24514580       0.00282239      -0.00184288       0.00101121      -4.48076487 F F F      -0.28028322      -0.16087761      -0.71943261
Ge      14.43275218      25.99305297      28.92855972      -0.00438646       0.00097784      -0.00062110      -4.49237928 F F F       0.00240297      -0.40143387       0.25451360
Ge      15.82404488      27.27639385      30.53028445       0.00061239      -0.00212050      -0.00353334      -4.45019848 F F F       0.12549296       1.11726863      -1.11436453
Ge      11.43170786      23.24997315      34.60059102      -0.00062824      -0.00299154      -0.00302882      -4.47018053 F F F       0.66145895      -0.00619786       0.51712238
Ge      13.06438113      24.65343251      35.94486336      -0.00185701      -0.00063627       0.00048700      -4.50001678 F F F      -0.38369945      -0.52703054      -0.03535885
Ge      11.62433633      26.01067415      37.38328483      -0.00177080       0.00176782      -0.00078914      -4.45468098 F F F       0.40302589       0.58050837       0.22749749
Ge      12.98769000      27.53459458      38.90660601      -0.00098366      -0.00072775       0.00257108      -4.47878659 F F F      -0.65902702      -0.41497906       0.57698654
Ge      14.33151277      23.11592889      37.41910795       0.00228291      -0.00019975      -0.00133953      -4.47655820 F F F       0.27875944      -0.51461907      -0.22181786
Ge      15.72035436      24.52583148      38.86915121      -0.00081423      -0.00079097       0.00243555      -4.47559271 F F F       0.36378885       0.78274216      -0.21075537
Ge      14.49991573      26.02232180      34.49193378      -0.00128992       0.00159970       0.00029478      -4.47154723 F F F       0.25571382       0.43299635       0.89369716
Ge      15.84055557      27.49002857      36.15447677       0.00082658      -0.00374558      -0.00229287      -4.49246051 F F F      -0.47190454      -0.25881817      -0.30362354
Ge      11.60113334      23.01730442      40.32948858       0.00055734      -0.00144481      -0.00131496      -4.44617076 F F F      -0.74648444       0.04909042      -0.41331547
Ge      12.93093302      24.33718289      41.82033355      -0.00059551      -0.00249759       0.00180841      -4.44141449 F F F       0.22718316       0.67437493       0.49018679
Ge      11.67816371      25.86393837      43.39750051      -0.00203799       0.00007791       0.00026593      -4.44216746 F F F      -0.39718357      -0.29318559      -0.83627913
Ge      12.92091882      27.26386943      44.89062389       0.00146897       0.00223459       0.00015212      -4.48011146 F F F       0.79400988       0.63414306       0.24637202
Ge      14.43496975      23.00255325      43.21315254       0.00081564      -0.00405846      -0.00051626      -4.49988028 F F F       0.21534939      -0.19670506       0.72987296
Ge      15.87738792      24.50850374      44.65911606      -0.00099994      -0.00151164       0.00165497      -4.43060919 F F F       0.69389678      -0.84765831       0.11824608
Ge      14.20301778      25.86944286      40.38267631      -0.00072435      -0.00109020       0.00096149      -4.49220051 F F F       0.64619289       0.37897264      -0.44078706
Ge      15.69726260      27.28624074      41.81163930       0.00144817      -0.00129762       0.00114323      -4.49444751 F F F       0.06477254       0.39734481      -0.05418050
Ge      11.48312639      28.77269085       0.11702571      -0.00015985       0.00112575       0.00039441      -4.45636426 F F F       0.06669495       0.52569669      -0.96049509
Ge      13.10074705      30.12577424       1.47358193      -0.00128654      -0.00299055       0.00019259      -4.48447328 F F F      -0.37924830       0.97457001      -0.19315887
Ge      11.57517881      31.74720417       2.76753210      -0.00150007       0.00101654      -0.00200313      -4.48716155 F F F       0.47829926      -0.36078258       0.04995270
Ge      13.00349556      33.11383393       4.30278456      -0.00213870      -0.00249753       0.00005813      -4.48598761 F F F       0.13923972       0.00630357       0.28817128
Ge      14.43479474      28.81245406       3.05729325      -0.00032220      -0.00133345       0.00020905      -4.45452046 F F F       0.90379543       0.00912184      -0.86191655
Ge      15.92518752      30.35510336       4.36071166      -0.00145339      -0.00051702      -0.00183949      -4.45909942 F F F       0.02350260      -1.04583143      -0.12894106
Ge      14.55253658      31.65215708      46.12547160      -0.00046421      -0.00213499       0.00015323      -4.49158091 F F F      -0.34011625      -0.64256002       0.32739157
Ge      15.94788191      33.07174878       1.38912812      -0.00109861       0.00008436       0.00425780      -4.44180273 F F F      -0.41800239       0.63581068       0.11873472
Ge      11.68062081      28.87114666       5.71557122       0.00243491       0.00209215      -0.00042528      -4.48281066 F F F      -0.25963187      -0.17778371       0.76733473
Ge      13.00043566      30.31877579       7.27931771      -0.00143795       0.00311923       0.00181554      -4.46350674 F F F       0.66865755      -0.72146039      -0.64209313
Ge      11.42898963      31.44150786       8.67533681       0.00038751       0.00149291      -0.00534227      -4.43945376 F F F       0.07701262       1.47300197      -0.19712231
Ge      12.96879099      33.01389772      10.01569971       0.00286014      -0.00303434       0.00039300      -4.50176459 F F F      -0.60769029      -0.30654064       0.46921711
Ge      14.33949250      28.76798515       8.73450215      -0.00125506       0.00065983      -0.00102260      -4.50162704 F F F       0.73286737       0.16572734      -0.59458221
Ge      15.81774341      30.18105355      10.20353780      -0.00159774       0.00017135       0.00325850      -4.46737176 F F F       0.52139446      -0.18579727      -1.11973630
Ge      14.47867575      31.67581978       5.73267437      -0.00052729       0.00284037       0.00127657      -4.48270000 F F F      -0.80829442       0.53516737       0.55612816
Ge      15.76936600      33.20138154       7.19183163      -0.00035420       0.00210311       0.00243420      -4.47800653 F F F       0.58404087       0.05279653      -0.27692891
Ge      11.55991040      28.65364247      11.45019043      -0.00071988       0.00275299      -0.00124608      -4.48252424 F F F      -0.53063360       0.45621792       0.59214152
Ge      12.81512238      30.24088200      12.95897412      -0.00143514      -0.00241214      -0.00038446      -4.49177007 F F F       0.30947961      -0.18773350      -0.20201128
Ge      11.47746593      31.58117697      14.58019949       0.00472110       0.00205690      -0.00101464      -4.49716707 F F F      -0.12587598      -0.01030353      -0.31300860
Ge      12.93361836      33.04402537      15.94503685       0.00134516      -0.00026583       0.00154391      -4.50990423 F F F       0.10981081       0.27633627      -0.07166933
Ge      14.31771632      28.83337406      14.34529095      -0.00119529      -0.00009965       0.00280742      -4.49514756 F F F       0.21816786       0.05925373       0.78286517
Ge      15.86152897      30.19574497      15.92995910      -0.00148199       0.00087476       0.00021838      -4.46988705 F F F      -0.56264759       0.32793185      -0.86932974
Ge      14.36924571      31.54732032      11.49917127       0.00242967       0.00138948      -0.00078855      -4.46280906 F F F      -0.44790362       0.82946784       0.75334484
Ge      15.80650527      32.94633964      13.04074769       0.00307806       0.00145116      -0.00212783      -4.44587100 F F F      -0.00664511       1.09273178      -1.06708380
Ge      11.42102531      28.85989219      17.44144306      -0.00016619       0.00211604      -0.00173710      -4.46254543 F F F       1.05213969       0.31453956      -0.82805289
Ge      13.00826210      30.30720932      18.85417849       0.00370065      -0.00201005      -0.00204010      -4.45384767 F F F      -0.60425871      -0.25744179      -0.54940627
Ge      11.52353124      31.68129750      20.21997996      -0.00035590       0.00138241       0.00109942      -4.49088514 F F F      -0.68012678       0.13432096       0.47460597
Ge      12.98007189      33.19250632      21.55707385      -0.00134785       0.00046971       0.00144228      -4.45829819 F F F      -0.97589369      -0.07781671       0.54723389
Ge      14.32341519      28.79096388      20.20068341      -0.00029502       0.00215607      -0.00009240      -4.47183106 F F F       0.75624346      -0.37253668       0.31608858
Ge      15.89164189      30.17939347      21.67253919       0.00159470       0.00258371       0.00087088      -4.48470860 F F F      -0.74794432       0.72265368      -0.16428676
Ge      14.39282381      31.65763576      17.34902674       0.00390702       0.00196651      -0.00134949      -4.49847638 F F F       0.41283334       0.07749258       0.04943538
Ge      15.76857060      33.18383244      18.77550271       0.00102087      -0.00272648      -0.00146910      -4.52145034 F F F       0.54779260      -0.52984793       0.06170556
Ge      11.38165446      28.90878701      23.32885914       0.00014879       0.00035660      -0.00199244      -4.48752034 F F F       0.25848831      -0.55561581       0.21671119
Ge      12.92378401      30.45062084      24.60889028      -0.00256876      -0.00029620      -0.00159479      -4.51552204 F F F      -0.17341249      -0.36995515      -0.08975103
Ge      11.51048652      31.76831366      26.18982051       0.00100144      -0.00024526      -0.00014866      -4.39674896 F F F       0.07231077      -0.31592050      -1.04050779
Ge      13.02591861      33.15656690      27.36831514      -0.00176591       0.00019335       0.00013977      -4.44024991 F F F       0.57135100       0.52143192       0.68360260
Ge      14.37178030      28.95248651      26.00157072       0.00206088       0.00052310      -0.00020598      -4.50873245 F F F       0.16039237       0.11256428       0.47520393
Ge      15.80441065      30.27696635      27.63808408       0.00191197       0.00036802      -0.00198053      -4.47530025 F F F       0.02389991       0.56737428      -0.68088328
Ge      14.30653703      31.76732125      22.99613814       0.00170484       0.00379450       0.00061100      -4.47053651 F F F       0.74745309      -0.78482980       0.08291059
Ge      15.82964737      33.02631989      24.47244300      -0.00333132      -0.00332329      -0.00199883      -4.48146263 F F F       0.34694889       0.40948855       0.61388876
Ge      11.62799574      28.75554680      28.89929816      -0.00352363      -0.00293544      -0.00152109      -4.44392322 F F F      -0.12364731       0.80810479       1.24682511
Ge      13.01212475      30.35128915      30.42973358       0.00222956      -0.00142599      -0.00017501      -4.44657053 F F F      -0.84116665      -0.37410646      -0.72950035
Ge      11.53521670      31.82019492      31.72764803      -0.00151126       0.00216291       0.00073606      -4.49643023 F F F       0.23257883      -0.18361335       0.77366837
Ge      13.02496409      33.14931861      33.25901336       0.00097723      -0.00140701       0.00136760      -4.43814397 F F F      -0.90326618       1.46205335      -0.53989405
Ge      14.46709269      28.95975136      31.73319341       0.00245395      -0.00021250      -0.00093631      -4.43629044 F F F      -0.05729740      -0.73888522       0.53615003
Ge      15.86537419      30.35847361      33.16669665      -0.00162630      -0.00150922       0.00036991      -4.51252001 F F F       0.44788048       0.42586072       0.57126199
Ge      14.31981651      31.83479171      29.03728601       0.00303277      -0.00009917      -0.00140830      -4.48589658 F F F       0.85289363      -0.16508301      -0.74526029
Ge      15.89732947      33.28940222      30.31481008       0.00034899      -0.00504704      -0.00077290      -4.48227849 F F F      -0.15484987       0.27896964      -0.05985912
Ge      11.65982928      28.93161681      34.64242163      -0.00193354      -0.00062483       0.00448690      -4.50035275 F F F      -0.02439773       0.22949846       0.50836515
Ge      13.03989866      30.58338065      36.14812550       0.00415120      -0.00007980      -0.00207081      -4.44937572 F F F      -0.23913979      -1.34762593      -0.39902863
Ge      11.59974110      31.74085117      37.68777016      -0.00199007       0.00190293      -0.00017946      -4.44031917 F F F      -0.50057539       0.37740439      -0.03650506
Ge      13.10358107      33.13141147      39.04957838       0.00278538       0.00287772       0.00071621      -4.50401722 F F F       0.14805699       0.00816764       0.06373484
Ge      14.38373519      29.05909445      37.58670333      -0.00027791      -0.00095750      -0.00136236      -4.47596094 F F F       0.47217225      -0.38142170      -0.58107380
Ge      15.95093595      30.30857071      38.98516959      -0.00441719       0.00161167       0.00070688      -4.46964685 F F F       0.58788574       0.16797230      -0.26051965
Ge      14.42856033      31.88552861      34.63860582      -0.00319411       0.00133152       0.00125289      -4.41446579 F F F       1.10412300      -0.84071927       0.20148641
Ge      15.90268535      33.29467069      36.05190150      -0.00187130      -0.00242428       0.00020330      -4.49135891 F F F      -0.34744477      -0.00719200       0.52331506
Ge      11.48842809      28.74412309      40.60992355       0.00136713      -0.00128732       0.00325302      -4.47738968 F F F       0.10441018       0.55726130      -0.92079175
Ge      12.99412902      30.27299804      41.91661292       0.00435073      -0.00063472       0.00188208      -4.50569476 F F F      -0.16292627      -0.26102309       0.38331131
Ge      11.57398268      31.82283147      43.34237005       0.00413969       0.00341947       0.00074087      -4.49592875 F F F       0.13889518      -0.68716882       0.32547363
Ge      13.03841432      33.15682142      44.88831892      -0.00119890       0.00066510       0.00098455      -4.46005985 F F F      -0.22561279       0.16069851      -0.73154061
Ge      14.36910038      28.72914826      43.39525747      -0.00084025       0.00051522       0.00050253      -4.50452891 F F F      -0.30240292      -0.07306398      -0.39856746
Ge      15.92502879      30.10944308      44.69211368       0.00360018       0.00312444       0.00049582      -4.48868806 F F F       0.35101839       0.56680558       0.34253456
Ge      14.51525460      31.58198869      40.46026973      -0.00153895       0.00145909      -0.00015944      -4.48857282 F F F      -0.27969105       0.73403547       0.33521968
Ge      15.82777034      33.08036316      42.01687708       0.00098729       0.00247825       0.00052246      -4.48863089 F F F      -0.39716506       0.47558832      -0.58281710
Ge      11.66562658      34.74428604      46.18426741      -0.00369792      -0.00318328      -0.00002984      -4.47844082 F F F      -0.56626028      -0.25750068       0.16653067
Ge      13.14689685      35.88375016       1.60727737       0.00220008       0.00107850       0.00191839      -4.46831092 F F F      -0.22295486       0.65848852       0.07390782
Ge      11.58083277      37.40886733       2.90731856      -0.00196065      -0.00073197      -0.00011111      -4.48667182 F F F       0.40687183      -0.11186138      -0.04739498
Ge      12.96794192      38.93597782       4.31479386       0.00158188      -0.00109723       0.00047304      -4.49490257 F F F      -0.03112675      -0.00363944       0.00118833
Ge      14.66352498      34.48006586       3.05751821       0.00089202       0.00274453      -0.00108816      -4.49815354 F F F      -0.19717412       0.18815217      -0.64461399
Ge      16.07131850      36.11893889       4.36706302      -0.00151935      -0.00098042      -0.00140046      -4.43822378 F F F      -0.15730039      -0.80458837      -0.55402042
Ge      14.30236234      37.53846824       0.10122624       0.00094114      -0.00069242       0.00204605      -4.45673076 F F F       0.56373294      -0.20009863       0.19468960
Ge      15.95301306      38.88465872       1.43218678       0.00080625      -0.00109715      -0.00368571      -4.50412714 F F F      -0.11845398       0.23286868       0.00458389
Ge      11.73513451      34.62572875       5.86342921      -0.00402612      -0.00264585       0.00376201      -4.49345640 F F F      -0.25063749      -0.01622411       0.01474386
Ge      13.18973109      36.14882945       7.32448204       0.00098301       0.00253129       0.00055731      -4.48100774 F F F      -0.64798567      -0.60349690      -0.23352272
Ge      11.57772066      37.50872597       8.73547128       0.00076262      -0.00030720       0.00076413      -4.49515506 F F F       0.15426982      -0.24825163      -0.45935756
Ge      13.15671971      38.79686580      10.11214343      -0.00045437       0.00281951      -0.00004581      -4.44578748 F F F      -0.49325948       1.18105199       0.13894662
Ge      14.44115994      34.49901189       8.74590856       0.00038742      -0.00128215      -0.00107184      -4.45306472 F F F      -0.00009472       0.70948326      -0.09822697
Ge      15.90595143      36.00755232      10.14008033       0.00090342      -0.00045342      -0.00218423      -4.48984035 F F F       0.12314269      -0.53111344      -0.40197418
Ge      14.48158861      37.40301448       5.59372076      -0.00227975       0.00120885      -0.00148383      -4.42901954 F F F      -0.27626374       0.91298172       1.10535030
Ge      15.94207620      38.78942879       7.19598433       0.00026268       0.00044282       0.00029659      -4.46708869 F F F      -0.47745809       0.67621702      -0.91344004
Ge      11.52433209      34.50251333      11.49561041       0.00315661       0.00008063       0.00227555      -4.49257261 F F F       0.52096692      -0.24079313       0.09658889
Ge      12.99784913      35.82873229      12.99251166       0.00180790      -0.00118463      -0.00189879      -4.49623065 F F F      -0.16640761       0.89886388       0.10851543
Ge      11.46887485      37.47687965      14.41300648       0.00042187       0.00112910       0.00272276      -4.45986791 F F F       0.81529769      -0.79695997       0.47361805
Ge      12.91099123      38.89297992      15.98052431      -0.00283347      -0.00049130       0.00203032      -4.49842784 F F F       0.42202532      -0.40617188      -0.46564632
Ge      14.43906452      34.43986030      14.47874491       0.00129188       0.00059593      -0.00429479      -4.49654713 F F F      -0.32789711      -0.07210735      -0.12302674
Ge      15.84589695      35.92821877      15.87950623       0.00193385       0.00104993       0.00426052      -4.49659219 F F F       0.44510140       0.20783188       0.41308781
Ge      14.48318017      37.33511329      11.57430061       0.00057809       0.00007549      -0.00234047      -4.46542190 F F F      -0.05729970       0.26376514       0.73872866
Ge      15.99559715      38.83200262      13.00994841       0.00075777       0.00012959      -0.00180549      -4.48505169 F F F      -0.73994396      -0.11788179       0.59462119
Ge      11.53013285      34.55199916      17.36724687      -0.00075601       0.00181800       0.00022184      -4.48725697 F F F      -0.23037340      -0.23806765       0.05110785
Ge      12.89492259      35.98761495      18.82137054       0.00199575       0.00011118      -0.00256760      -4.48420095 F F F       0.19772639       0.82138676      -0.39041496
Ge      11.51070033      37.64105313      20.13014104       0.00084118      -0.00021779       0.00203293      -4.49888665 F F F      -0.38703296      -0.31733475       0.34827169
Ge      12.93677281      38.92593877      21.76745588      -0.00091276      -0.00140531       0.00300489      -4.47542405 F F F       0.05278678      -0.43007457      -0.01599464
Ge      14.36119286      34.61253583      20.19560402      -0.00043348       0.00024282      -0.00043474      -4.44000522 F F F       0.33737361       0.16632441       0.01377434
Ge      15.82934961      35.93617360      21.67603730      -0.00644278      -0.00112656       0.00187164      -4.50221857 F F F       0.56542001       0.01444639       0.39254686
Ge      14.46496107      37.39565519      17.36805397       0.00073709       0.00150824      -0.00376507      -4.47850991 F F F      -0.95822958      -0.21742389      -0.21680401
Ge      15.64916022      38.84302282      18.92345754      -0.00076047      -0.00271567       0.00048405      -4.43616423 F F F       0.98080176       0.72044180      -0.47224389
Ge      11.42863491      34.52212244      23.11587755      -0.00019337       0.00051044      -0.00087399      -4.47874324 F F F      -0.25436363      -0.43540713      -0.26684421
Ge      12.86314032      35.89010049      24.50488138      -0.00288505       0.00008379       0.00103386      -4.46395268 F F F       0.67008552       0.68212483       0.24480949
Ge      11.57761747      37.49226324      25.92286499      -0.00049797      -0.00059518       0.00284275      -4.50790325 F F F      -0.05577833       0.16458222       0.34964340
Ge      13.06095660      38.83920345      27.50369307      -0.00151630      -0.00187006       0.00215333      -4.44002518 F F F      -1.18986665       0.14436304       0.21075888
Ge      14.46378227      34.59238956      25.91211253      -0.00180638      -0.00079591      -0.00027710      -4.52140693 F F F       0.18871491      -0.17404900       0.15418223
Ge      16.03512868      35.99612262      27.37868271      -0.00344503      -0.00131581      -0.00054595      -4.43308746 F F F      -1.09641577       0.61225475      -0.66681835
Ge      14.42967132      37.35189968      23.13734664       0.00124754      -0.00112622      -0.00227824      -4.47067855 F F F      -0.75530747       0.06697784      -0.32008158
Ge      15.81111617      38.90593981      24.40501325       0.00184198      -0.00185871       0.00178454      -4.47827283 F F F       0.59081998       0.43943128       0.79161876
Ge      11.56982859      34.53351666      28.80137479      -0.00016887       0.00119274       0.00143232      -4.47767767 F F F      -0.54217127       0.43946219      -0.31169118
Ge      13.00085838      35.91556853      30.17499067      -0.00207820      -0.00036701      -0.00113449      -4.45776728 F F F       0.59247914       1.16064483       0.86706220
Ge      11.67386985      37.55343065      31.76382590      -0.00101758      -0.00228623      -0.00077567      -4.43632634 F F F       0.28895042      -0.96406625      -0.00416997
Ge      12.93655333      39.00580537      33.28944543      -0.00094460      -0.00209225       0.00009822      -4.49118810 F F F       0.45588035       0.19057905       0.42160400
Ge      14.47667751      34.67224090      31.81302131      -0.00090624      -0.00161913      -0.00291184      -4.49025279 F F F      -0.15890782       0.23825180       0.16885391
Ge      15.93916090      36.25936796      33.24796619       0.00344731       0.00003433       0.00091643      -4.48664096 F F F      -0.89781018      -0.00975305      -0.13367854
Ge      14.59295875      37.45955689      28.82207607      -0.00186120      -0.00013994      -0.00301841      -4.49680829 F F F      -0.42034234      -0.59879408       0.35616253
Ge      15.88257527      38.95974736      30.32410299      -0.00194367      -0.00067868      -0.00350807      -4.45066345 F F F       0.07625301      -0.42785758       0.13776900
Ge      11.57893625      34.69513720      34.85833545      -0.00191763       0.00043385      -0.00193432      -4.45045936 F F F      -0.36292991      -0.73072123      -1.38323182
Ge      12.97577693      36.09077575      36.18616890      -0.00444157       0.00228529       0.00195204      -4.44847464 F F F       0.21481454       0.59416691       0.63526699
Ge      11.47654418      37.47123186      37.69739861      -0.00323562      -0.00012247      -0.00130224      -4.49183564 F F F       0.91020672       0.27675846       0.01316868
Ge      12.88812564      39.09962670      39.11516919       0.00057739      -0.00042429       0.00261614      -4.47189541 F F F       0.05974255      -1.10386923      -0.12894523
Ge      14.41038516      34.63260358      37.55197626       0.00183146       0.00249625      -0.00365556      -4.51468289 F F F       0.37988866       0.03359822       0.33378572
Ge      15.83558473      36.11790695      39.04537900      -0.00219902       0.00045600       0.00422908      -4.50975043 F F F       0.01420105       0.11839751      -0.05123854
Ge      14.40433928      37.60173170      34.83608946       0.00142369       0.00064528      -0.00217970      -4.48501537 F F F      -0.14166250      -0.23156122      -1.03736403
Ge      15.78992960      39.08365927      36.15650881       0.00329326      -0.00084213       0.00319338      -4.47119375 F F F       0.25358283       0.01707872       0.86490652
Ge      11.65724377      34.61802107      40.38818375      -0.00005435       0.00008119       0.00077775      -4.48004264 F F F      -0.07994109       0.27683035       0.19843829
Ge      12.96789118      36.14970540      41.83519992      -0.00044994      -0.00002302      -0.00023678      -4.47130960 F F F      -0.18191175      -0.02236175       0.00056985
Ge      11.61974141      37.53569424      43.39802319       0.00149986      -0.00251522      -0.00166086      -4.47793171 F F F      -0.01662779      -0.21558360      -0.11974057
Ge      13.09299747      39.02421751      44.71057419      -0.00077953       0.00052569      -0.00116336      -4.48094571 F F F       0.09361872       0.13204663      -0.01572132
Ge      14.26008012      34.64781348      43.25057350       0.00165366       0.00133477       0.00323763      -4.46994133 F F F       0.92940767      -0.33880708       0.83666319
Ge      15.71390495      36.10242708      44.83999325       0.00074437      -0.00278790      -0.00088294      -4.49914630 F F F       0.30594385      -0.33402709      -0.37986681
Ge      14.41686591      37.63414137      40.51748776      -0.00302633       0.00067119       0.00175100      -4.51139196 F F F       0.02100178      -0.09459007      -0.54280192
Ge      15.85673312      38.97367822      42.00309486       0.00025960       0.00187323      -0.00290514      -4.49588433 F F F       0.36664820       0.00925161      -0.14889095
Ge      11.60765271      40.35600982      46.12045528      -0.00179572       0.00162900      -0.00020794      -4.48503372 F F F       0.00798259       0.04326639       0.78155028
Ge      12.97349694      41.83875704       1.47057718      -0.00149622       0.00171116       0.00163716      -4.49979647 F F F       0.40994593       0.01245549      -0.26932384
Ge      11.47307898      43.27299956       2.91083097       0.00037278       0.00084157      -0.00074599      -4.47474372 F F F      -0.08844251      -0.28001434      -0.14703377
Ge      12.86899547      44.71322186       4.30267852      -0.00101009       0.00033889      -0.00055908      -4.41100364 F F F       1.03451162      -0.59444750      -0.48903903
Ge      14.45068656      40.26873115       2.85287685       0.00166747       0.00015731      -0.00081919      -4.49335664 F F F      -0.09603474       0.77731708       0.10865213
Ge      15.71505678      41.93092476       4.33766163      -0.00033858       0.00081503       0.00142666      -4.46246552 F F F       0.08176354      -1.11816369      -0.36686349
Ge      14.50359204      43.42035783       0.04186635       0.00167024      -0.00254186       0.00040612      -4.48538479 F F F      -0.54690962      -0.20932291      -0.03306643
Ge      15.97770248      45.01014342       1.35999445       0.00121676       0.00045201      -0.00059371      -4.42704064 F F F      -0.06500324      -1.60941178       0.32593321
Ge      11.49982320      40.44096667       5.71360812       0.00029581      -0.00178163       0.00018728      -4.51171420 F F F      -0.31649284      -0.20302152      -0.28287429
Ge      12.89371200      41.78617716       7.22806194      -0.00037616       0.00136163       0.00249483      -4.49908630 F F F       0.61690723       0.16681770      -0.02758612
Ge      11.57172349      43.23303374       8.74875538      -0.00080225      -0.00289123      -0.00100769      -4.49073722 F F F       0.37547709      -0.08496913       0.32465111
Ge      13.08569620      44.74100746      10.13827414      -0.00114855       0.00419974      -0.00041732      -4.46592634 F F F      -0.41251634      -0.32983018      -0.30865364
Ge      14.55458709      40.35286580       8.50726692       0.00040185      -0.00136599      -0.00072232      -4.42987667 F F F      -1.11092799      -0.80096647       0.23019947
Ge      15.74209941      41.66333001      10.12125249      -0.00248861       0.00211883       0.00032720      -4.43420516 F F F       1.13510946       0.83206853       0.03856226
Ge      14.32111587      43.28885641       5.75274700       0.00212698      -0.00131507      -0.00282611      -4.49988681 F F F      -0.24404687       0.28431050       0.55386641
Ge      15.92875062      44.68169647       7.13105224       0.00060967      -0.00138116      -0.00127314      -4.47486577 F F F      -0.67694352       0.06790867       0.57955639
Ge      11.52111916      40.29117698      11.66303624       0.00018657      -0.00126669       0.00101865      -4.44322750 F F F       0.34848176      -0.25870250      -1.33110851
Ge      12.87298652      41.70403125      13.06611630       0.00325410       0.00063726      -0.00017972      -4.46087863 F F F       0.56260079       0.42558745      -0.09592554
Ge      11.52809454      43.26388944      14.41347829       0.00056241       0.00148923      -0.00335303      -4.46621362 F F F       0.69737384       0.43774818       0.22521900
Ge      13.13865877      44.70445294      15.80951775      -0.00001231      -0.00224086      -0.00305716      -4.49320151 F F F      -0.53890634       0.15491180      -0.34115688
Ge      14.37608569      40.30087090      14.45956844       0.00143451      -0.00138118      -0.00266627      -4.49055947 F F F       0.53952637      -0.19434008       0.24428182
Ge      15.84512610      41.72799974      16.02964059       0.00085182       0.00098269       0.00079689      -4.50465032 F F F      -0.08438445       0.21093003      -0.27840886
Ge      14.29813639      43.10725876      11.52404726      -0.00188889       0.00281717      -0.00120474      -4.49011468 F F F       0.57699025       0.27314707       0.65809653
Ge      15.93765607      44.55835947      12.99454792       0.00166666      -0.00018094      -0.00035687      -4.49084020 F F F      -0.67559508       0.04783517      -0.08984409
Ge      11.53620920      40.47454091      17.28933817      -0.00113197       0.00334734      -0.00126923      -4.46971830 F F F      -0.02292464      -0.05891079       0.30242456
Ge      12.88086464      41.86658653      18.84735970      -0.00166488       0.00022864      -0.00033802      -4.50912693 F F F       0.26101919       0.50955703       0.22645848
Ge      11.39162324      43.39617448      20.33223842      -0.00162328      -0.00113158      -0.00152216      -4.46751110 F F F      -0.04307212      -0.29630073      -1.14177835
Ge      12.86209457      44.73915262      21.74904610      -0.00023237      -0.00064987       0.00209031      -4.48415909 F F F       0.60538551       0.28432189       0.21157150
Ge      14.31344581      40.36941232      20.35211074       0.00080127      -0.00120661       0.00352569      -4.48774187 F F F       0.11026022       0.49147739      -0.39296867
Ge      15.85378697      41.82523871      21.72073445       0.00297417      -0.00119078      -0.00275166      -4.47875322 F F F      -0.25661448       0.56107548      -0.27043755
Ge      14.40789689      43.36058889      17.38771401       0.00225637      -0.00081575      -0.00377852      -4.46967268 F F F       0.08478404      -0.96996766       0.28234228
Ge      15.77118462      44.79473553      18.87195443       0.00341817      -0.00179188      -0.00163867      -4.49998628 F F F       0.72680993      -0.19312532      -0.07018621
Ge      11.57672535      40.53982551      23.07699302      -0.00192518      -0.00099765       0.00183441      -4.47594318 F F F      -0.19187782       0.02899078      -0.18430738
Ge      12.95411288      41.84636739      24.65508673       0.00127023      -0.00010572       0.00184495      -4.45221443 F F F       0.79919676      -0.06622884      -0.79184088
Ge      11.57271676      43.24695263      25.99000727       0.00298644       0.00080739      -0.00001299      -4.47119041 F F F      -0.94467576       0.73629597       0.55147059
Ge      12.88697672      44.85079197      27.39392800       0.00139493      -0.00353786       0.00079134      -4.47481517 F F F       0.24966176      -0.75952984       0.40161032
Ge      14.29117371      40.27241559      26.01944746       0.00055450      -0.00078012      -0.00007148      -4.44569481 F F F       0.84610101       0.20740624      -0.74695412
Ge      15.74646223      41.81091534      27.30270528       0.00138034       0.00152099       0.00075666      -4.47925396 F F F       0.24595840       0.26914224       0.92014243
Ge      14.44272553      43.37470718      23.19489992       0.00045790       0.00071698       0.00118950      -4.51801487 F F F      -0.09947335      -0.25541591       0.12117897
Ge      15.92300020      44.89736543      24.61665326       0.00517686      -0.00133940      -0.00000053      -4.49452799 F F F      -0.56913954      -0.36597819      -0.15231685
Ge      11.41456684      40.43380952      28.92246211      -0.00220053      -0.00004116       0.00042557      -4.44597694 F F F       0.35706608      -0.86320085      -0.34862738
Ge      12.85576235      41.74167897      30.34520547      -0.00127121       0.00238156      -0.00373111      -4.47666762 F F F       1.02016145       0.53015636       0.21297875
Ge      11.56897768      43.25488873      31.84125933      -0.00083722       0.00107390       0.00071727      -4.47658142 F F F      -0.58922249      -0.15817058      -0.33957930
Ge      12.82757466      44.79899416      33.23125316       0.00105334       0.00101100      -0.00246217      -4.48023501 F F F       0.32805689       0.01425093       0.44909639
Ge      14.47334878      40.32796152      31.76819289       0.00162620      -0.00093948       0.00436446      -4.48676457 F F F      -0.85715323       0.63456324       0.27360648
Ge      15.73131296      41.93019405      33.23702144      -0.00298515       0.00047235       0.00116485      -4.48862901 F F F       0.63729624      -0.08072527      -0.29337672
Ge      14.28265581      43.29202455      28.87661428      -0.00086291       0.00105168      -0.00327849      -4.46991189 F F F       0.51163416       0.07617019      -0.11351590
Ge      15.88994175      44.79491487      30.29866761      -0.00034056       0.00428224       0.00352601      -4.44972180 F F F      -0.71509803      -0.02014198       0.23065961
Ge      11.45393768      40.47856861      34.79107008      -0.00117966       0.00181266       0.00228315      -4.50253631 F F F       0.54569724      -0.16290583      -0.45759534
Ge      12.90420779      42.00848621      36.14584447      -0.00019666      -0.00157260      -0.00347480      -4.51284667 F F F       0.01372099      -0.26825501       0.17803142
Ge      11.35142589      43.39381339      37.54173043       0.00194043       0.00023508       0.00298623      -4.44205170 F F F       1.22598285      -0.51250445       1.02473715
Ge      12.99397046      44.77854812      38.98034342       0.00078633       0.00095528       0.00066254      -4.50038086 F F F      -0.18881675      -0.28832449       0.07094948
Ge      14.26069984      40.49962775      37.69281659       0.00022083      -0.00247435       0.00110355      -4.48938084 F F F       0.76046796       0.34345966      -0.80927406
Ge      15.94969890      41.82524935      39.05337803      -0.00129020      -0.00087597       0.00129825      -4.44290643 F F F      -0.68486019      -0.56273295      -0.23577343
Ge      14.37202776      43.43332703      34.68338757       0.00223635       0.00458088      -0.00269389      -4.50579467 F F F      -0.16431316      -0.09683881      -0.03557100
Ge      15.92930151      44.81531691      36.04221958       0.00162095       0.00189709       0.00238882      -4.49796928 F F F      -0.29163389       0.13897737       0.17644044
Ge      11.54744566      40.49332296      40.56459485       0.00050876       0.00116424      -0.00285516      -4.48744736 F F F      -0.13260367       0.28601597       0.07425216
Ge      13.11095658      41.92806752      41.89332209       0.00265485       0.00002861      -0.00146828      -4.44567805 F F F      -0.85330629      -0.12842985       0.17996786
Ge      11.46120469      43.21278768      43.31398957       0.00111458      -0.00195304      -0.00387520      -4.46309733 F F F      -0.48345207       0.04915553      -0.61951430
Ge      12.85611371      44.62071876      44.67183655       0.00163719      -0.00075069       0.00034584      -4.44652175 F F F       0.80682340       0.69691787       0.75940249
Ge      14.54896126      40.57386887      43.31678776      -0.00121421       0.00242259       0.00413820      -4.47258007 F F F      -0.26754847      -0.50291231       0.40913279
Ge      15.93713333      42.02376313      44.73438831       0.00212968      -0.00022532      -0.00121496      -4.50379785 F F F       0.29285006       0.04514881       0.17830825
Ge      14.54247535      43.22980135      40.43659873       0.00143085       0.00173302      -0.00119079      -4.46627417 F F F      -0.40436072       1.11145880      -0.25282038
Ge      15.96433405      44.76894982      41.79257946       0.00393199      -0.00256866       0.00228880      -4.51708985 F F F       0.19681781       0.04661841      -0.04496212
Ge      17.45224998       0.11225833      46.08998696      -0.00054393       0.00176323      -0.00039578      -4.37855622 F F F      -0.67351647      -0.82715556      -0.69925853
Ge      18.76862570       1.39231362       1.32704312      -0.00086341      -0.00364955       0.00150238      -4.43447310 F F F       0.91414395       1.33897328       0.94450542
Ge      17.32135982       2.83784617       2.80417156      -0.00143537      -0.00005340       0.00017518      -4.49963176 F F F       0.05215947       0.20903711      -0.22576361
Ge      18.80531489       4.16806926       4.32919151      -0.00290339      -0.00063930      -0.00074075      -4.47330315 F F F      -0.04633353       0.62763136       0.31746882
Ge      20.12519459      46.17094945       2.86115908       0.00064458       0.00109370       0.00134219      -4.50392919 F F F       0.08026454      -0.67090244       0.23007130
Ge      21.64947329       1.36421353       4.30913197      -0.00143687       0.00034308      -0.00204121      -4.48116481 F F F       0.39383486      -0.13179058      -0.47864079
Ge      20.33768667       2.87532464      46.15303338      -0.00042906      -0.00165146      -0.00056810      -4.50685486 F F F      -0.74867502      -0.53263521      -0.41164217
Ge      21.70519643       4.25881365       1.36728731       0.00001290      -0.00205409       0.00094309      -4.42364286 F F F      -0.14704377       0.77686113       0.18040034
Ge      17.45547471      46.16740073       5.92979625       0.00125248       0.00425878       0.00330512      -4.47481156 F F F       0.02847170       0.05766411      -0.83703512
Ge      18.89720668       1.41983038       7.42006763       0.00047437       0.00083211      -0.00007110      -4.48643623 F F F      -0.47049753      -0.31815129      -0.32946968
Ge      17.30047497       2.93060508       8.60888026       0.00143140      -0.00009455       0.00138234      -4.47024049 F F F       0.07725936      -0.13227126      -0.24268410
Ge      18.66958952       4.25747478      10.12247612       0.00278910       0.00207682      -0.00102746      -4.47341288 F F F       0.57827860       0.91897276      -0.17175575
Ge      20.27662212      46.10387026       8.81232868      -0.00122812       0.00073911      -0.00102142      -4.48622667 F F F       0.34725185       0.08356177      -0.33088794
Ge      21.68957027       1.52192462      10.13027434      -0.00039003      -0.00321433       0.00294003      -4.50955101 F F F      -0.01571655      -0.52953573       0.18220728
Ge      20.27282063       2.66514340       5.83053555      -0.00030717       0.00064502       0.00063139      -4.46671121 F F F      -0.31786483       0.95453485      -0.28961909
Ge      21.70140022       4.22632297       7.15618644      -0.00286457       0.00113939       0.00109932      -4.47069259 F F F      -0.33720675       0.18631198      -0.44936871
Ge      17.32795654      45.99907674      11.52091944       0.00254440      -0.00260773      -0.00222925      -4.44238901 F F F      -0.30129198       1.08963811       0.56401773
Ge      18.69704878       1.41164356      13.04890499      -0.00121844      -0.00045932      -0.00160664      -4.47913033 F F F       0.31229834      -0.25351443       0.12951151
Ge      17.32100557       3.04451652      14.48138344       0.00168547       0.00062183       0.00241666      -4.47256894 F F F       0.11545055      -0.81133932       0.36348805
Ge      18.77588481       4.47589519      15.94877457       0.00102929       0.00149479       0.00102301      -4.51155426 F F F      -0.24525547      -0.01885786      -0.04202850
Ge      20.32862586      46.16386708      14.55869762       0.00069252       0.00242123      -0.00026435      -4.46027607 F F F      -1.11164595       0.60186232      -0.43878394
Ge      21.65825631       1.54771836      15.91025430      -0.00083832      -0.00182682       0.00047304      -4.50531335 F F F       0.27596260      -0.21969834       0.30868935
Ge      20.12804747       2.84643928      11.53385290      -0.00055042      -0.00268080       0.00016527      -4.48384542 F F F       0.19131060       0.11247688       0.62677528
Ge      21.63322825       4.38136882      12.97437635      -0.00088029      -0.00092550       0.00151856      -4.51003260 F F F      -0.27596583      -0.04415346      -0.32835573
Ge      17.29269486      46.18104094      17.38035876       0.00184450       0.00387658       0.00368185      -4.46794538 F F F       0.38880752      -0.20742078       0.67966681
Ge      18.73560772       1.60104657      18.72268476      -0.00036552       0.00118634      -0.00073942      -4.47898241 F F F       0.05942683      -0.94040866       0.27826857
Ge      17.48939277       2.92721551      20.34401468      -0.00136302      -0.00014779      -0.00111265      -4.44604784 F F F      -1.25289163       0.04783261      -0.32359336
Ge      18.93560864       4.41512385      21.58672949      -0.00014804      -0.00260336      -0.00216835      -4.46728244 F F F      -0.42011457       0.60176395       0.39647381
Ge      20.18364688       0.12705280      20.20910467      -0.00237421       0.00201831       0.00023396      -4.47312552 F F F       0.16319826      -0.42337862      -1.07584476
Ge      21.55826591       1.39043239      21.72233640      -0.00098503      -0.00211583       0.00143425      -4.45767405 F F F       0.66254461       0.70028268      -0.30221136
Ge      20.20766817       2.99268096      17.37127237      -0.00133854       0.00130504      -0.00011523      -4.47414752 F F F      -0.04140835      -0.17947436      -0.70149668
Ge      21.67898440       4.29795099      18.78086710      -0.00215559      -0.00174189      -0.00054570      -4.46938751 F F F       0.34308493       0.32294846       0.11234381
Ge      17.24269143       0.15578567      23.11672660       0.00242440      -0.00405317      -0.00082353      -4.47837859 F F F      -0.16199560      -0.51852663      -0.60114817
Ge      18.59555477       1.55050001      24.52465323       0.00168323      -0.00025906       0.00310750      -4.45546336 F F F       0.97035609      -0.20276083       0.88653028
Ge      17.29283910       2.97869715      26.09034983       0.00051999       0.00085715       0.00125239      -4.48389164 F F F       0.20166872       0.22872745       0.12103676
Ge      18.67684408       4.61629424      27.49100472      -0.00141456       0.00291087       0.00258737      -4.47765132 F F F       0.15300749      -1.12896313      -0.24334338
Ge      20.20116633       0.02549645      26.00739660      -0.00052947       0.00159337       0.00051338      -4.47128163 F F F      -0.64891209       0.89554995       0.50155446
Ge      21.65136153       1.54711968      27.57525152      -0.00115501      -0.00191316      -0.00228331      -4.46489286 F F F      -0.26016664      -0.06482046      -1.46798916
Ge      20.13196562       2.85663522      23.08398943       0.00274759       0.00043928      -0.00209199      -4.46819286 F F F      -0.23641015       0.06455211       0.02137870
Ge      21.45002771       4.28493094      24.53306249      -0.00582235      -0.00204741      -0.00180673      -4.47992006 F F F       0.58849260       0.32360637       0.38775248
Ge      17.26443017       0.17165644      28.84256430       0.00018271       0.00051230      -0.00023427      -4.47262199 F F F      -0.66759121      -0.34561283      -0.02475255
Ge      18.69801084       1.57036396      30.21419621       0.00110051      -0.00115833       0.00103945      -4.49201665 F F F       0.22035471       0.25499366       0.71744561
Ge      17.19280757       2.96925721      31.74140718       0.00209258       0.00030845      -0.00002661      -4.48342972 F F F       0.17879458       0.31103229      -0.50605066
Ge      18.61858024       4.46280954      33.15716911      -0.00442541      -0.00189999       0.00039623      -4.48699482 F F F      -0.17313931       0.38956973       0.15108929
Ge      20.23796353       0.14383199      31.61801343       0.00285246      -0.00096477      -0.00238989      -4.51533142 F F F      -0.27994526      -0.05208916       0.37882088
Ge      21.67752618       1.59665089      33.12083453      -0.00151185      -0.00172869      -0.00187233      -4.51057987 F F F      -0.31732826      -0.09256850      -0.35603389
Ge      20.14814288       3.03142734      28.82966030      -0.00040207      -0.00106880       0.00292116      -4.47261889 F F F      -0.37361332       0.18687458      -0.15779911
Ge      21.71112488       4.37562283      30.14614167       0.00071017       0.00205871      -0.00094495      -4.42095533 F F F      -1.10932709       0.31180595       1.11239126
Ge      17.20916446       0.18846230      34.50501675       0.00081278       0.00107015       0.00030344      -4.49818296 F F F       0.06101110      -0.11334872       0.52948225
Ge      18.73542572       1.52430678      36.07140147       0.00192896      -0.00055171      -0.00275390      -4.46264823 F F F      -0.37852585      -0.08501155      -0.57743220
Ge      17.30521834       2.91106836      37.50990664       0.00346612       0.00071531      -0.00089013      -4.51101516 F F F      -0.57579091       0.37384254       0.17696259
Ge      18.72990576       4.34692078      39.03905216       0.00026100       0.00247221       0.00490616      -4.46087981 F F F      -0.97537768       0.28259484      -0.41894746
Ge      20.10830229       0.17579540      37.61119621      -0.00103608       0.00046956       0.00217357      -4.46465120 F F F      -0.22437415      -0.68913089      -0.10888048
Ge      21.53285364       1.51322656      39.04745697       0.00177983      -0.00425351       0.00362613      -4.49719622 F F F       0.61026258       0.46541228       0.01567402
Ge      20.03222634       2.92720320      34.46744944       0.00085006      -0.00001423      -0.00081994      -4.48262230 F F F       0.56185656       0.16891105       0.44121435
Ge      21.50643125       4.32056662      35.99616950       0.00098607       0.00346436       0.00393334      -4.46956539 F F F      -0.00873627       0.64904657      -0.49717137
Ge      17.43337059       0.05526096      40.33680856       0.00087071       0.00046064      -0.00206900      -4.48119015 F F F      -0.63871027       0.03623137       0.84619610
Ge      18.82476006       1.38522266      41.99779478      -0.00070255       0.00008600       0.00195270      -4.48558112 F F F      -0.66985950       0.26823604      -0.45193999
Ge      17.28535861       2.84782260      43.33886494       0.00060777      -0.00174323       0.00042581      -4.48510112 F F F       0.27137615      -0.28085216      -0.61636176
Ge      18.88982604       4.23843430      44.58224556      -0.00044583      -0.00191891      -0.00202779      -4.47524787 F F F      -0.58278002       0.18809987       1.19956630
Ge      20.25535704      46.13546212      43.37123179      -0.00329621       0.00056380       0.00216011      -4.49355209 F F F       0.48778224       0.41942598       0.43324545
Ge      21.85337989       1.39355260      44.84643702      -0.00127351       0.00081611      -0.00065336      -4.44960952 F F F      -1.21773755      -0.16315717      -0.59935190
Ge      20.01880217       2.92002089      40.45494408      -0.00086896       0.00141855       0.00174651      -4.45285112 F F F       1.10536372      -0.55052437       0.61369677
Ge      21.61202222       4.23216380      41.92852142       0.00081545       0.00054626      -0.00135596      -4.50001394 F F F       0.00845753       0.61109302      -0.63089470
Ge      17.47668974       5.70834590       0.03321651      -0.00134651       0.00012364      -0.00322885      -4.49241846 F F F       0.35633600       0.09408399      -0.03543591
Ge      18.91840677       7.24738195       1.48522840      -0.00123911      -0.00073100       0.00215146      -4.47334496 F F F       0.10401163      -0.69690530      -0.69669931
Ge      17.44432573       8.65575963       2.82038591       0.00360571       0.00139231       0.00071344      -4.46251931 F F F      -0.58179092       0.40057585      -0.35228070
Ge      18.82003781      10.10963888       4.22287811      -0.00064357       0.00397210      -0.00099385      -4.39841161 F F F      -0.27539775      -0.59478251       0.41269049
Ge      20.31034777       5.67658538       2.91558751      -0.00343019       0.00214539      -0.00030140      -4.49400109 F F F      -0.07311162       0.35564049       0.08737141
Ge      21.71208952       7.31224984       4.31826464       0.00074386       0.00137101       0.00150474      -4.48688354 F F F      -0.35789626      -0.23446389      -0.24088828
Ge      20.22488707       8.64176537      45.97065418      -0.00149502      -0.00292626       0.00177722      -4.46396349 F F F      -0.40317412      -0.15180201       0.00210194
Ge      21.57861338      10.00463527       1.28389236      -0.00304146       0.00112708       0.00227393      -4.44690087 F F F       0.01325952       0.86017805       0.65901212
Ge      17.35698343       5.93678089       5.69591857      -0.00138174       0.00010833      -0.00012681      -4.46990290 F F F       0.27921396      -0.85720195       0.12827098
Ge      18.82681185       7.34347471       7.23474183      -0.00008090       0.00234643      -0.00178925      -4.46522399 F F F       0.02192463      -1.22431232      -0.21993484
Ge      17.27145267       8.60385061       8.61933378       0.00135722      -0.00089379      -0.00133060      -4.44231103 F F F      -0.81141191       0.04792103      -0.18325293
Ge      18.67635716      10.16722846       9.82263716       0.00337055       0.00234515      -0.00172691      -4.47847208 F F F       0.38471846       0.08693333       0.84106748
Ge      20.30998746       5.65016731       8.58364734       0.00168013       0.00095360       0.00256657      -4.46388408 F F F      -1.10908026       0.37098119       0.14543138
Ge      21.65411287       7.25784083       9.89186004       0.00065689       0.00165071      -0.00148778      -4.48447310 F F F      -0.08430728       0.15164082       0.16506346
Ge      20.19724524       8.75931278       5.77638231       0.00009931      -0.00140564      -0.00059343      -4.49325477 F F F       0.41555306      -0.31043292      -0.33441311
Ge      21.59783739      10.14906792       7.24590285      -0.00024742       0.00076847      -0.00067133      -4.48742685 F F F       1.06314288      -0.20154250      -0.55659411
Ge      17.30439937       5.88518516      11.49080496       0.00102940      -0.00077028       0.00011014      -4.50680489 F F F      -0.24606031      -0.36484035       0.08044724
Ge      18.81444991       7.30012647      12.89894241       0.00231698       0.00036030       0.00325726      -4.49979135 F F F      -0.21306429       0.11174451       0.16500195
Ge      17.29830242       8.73601898      14.38325937      -0.00223527       0.00253113      -0.00009961      -4.49160221 F F F       0.25054045      -0.57753734      -0.27505226
Ge      18.73255147      10.20771000      15.73852825       0.00093248       0.00250178       0.00221935      -4.48870506 F F F       0.15069396      -0.34813346       0.39708830
Ge      20.22411038       5.87984492      14.44446648       0.00100502       0.00592499      -0.00030001      -4.49496449 F F F      -0.00344823      -0.16779299      -0.25995951
Ge      21.75541289       7.25875286      15.83287006      -0.00165506      -0.00159591       0.00301423      -4.44803793 F F F      -0.66673410      -0.51272356       0.91879256
Ge      20.13721629       8.72514093      11.28385317       0.00249651       0.00336516      -0.00110049      -4.49471566 F F F      -0.07629931      -0.39926934      -0.04089719
Ge      21.64988222       9.97771312      12.72546949      -0.00055840       0.00246086      -0.00077365      -4.47715987 F F F      -0.05589765       0.99643824       0.44713380
Ge      17.13204424       5.79041456      17.41418764      -0.00009192      -0.00045630       0.00343497      -4.43877114 F F F       0.03714892      -0.66570632      -0.76837052
Ge      18.51114874       7.23592918      18.69841254      -0.00011320      -0.00072294       0.00043615      -4.45455553 F F F       1.18406664       0.62679534       0.41755154
Ge      17.19666277       8.73995067      20.19356459      -0.00490413      -0.00214371       0.00189897      -4.50175888 F F F      -0.38179726      -0.06518839      -0.29076010
Ge      18.63808329      10.09157251      21.63345216       0.00052490      -0.00238964      -0.00056513      -4.49776489 F F F       0.67172031       0.19284723       0.10444183
Ge      20.24178832       5.86895342      20.01833403       0.00250279       0.00029423       0.00461218      -4.47393062 F F F      -0.57896898       0.05716135       0.36008528
Ge      21.52189441       7.18158236      21.69897165      -0.00262029       0.00029664       0.00026596      -4.44073547 F F F       0.76343533      -0.12375267      -0.73410880
Ge      20.09448411       8.66283667      17.25080223       0.00093449       0.00081010       0.00056676      -4.49920700 F F F      -0.07949397      -0.02268110      -0.26921687
Ge      21.44301864      10.18317202      18.68907962       0.00432482      -0.00010423      -0.00018863      -4.49292121 F F F       0.32702279      -0.43900699       0.40734437
Ge      17.31346100       5.91448567      22.99580705      -0.00078945      -0.00311727      -0.00143159      -4.48595709 F F F      -0.02385193       0.01094174      -0.45173035
Ge      18.60664338       7.41030554      24.45648409       0.00014587      -0.00122520       0.00060534      -4.45734198 F F F       0.85213063      -0.43293057       0.59192145
Ge      17.14764796       8.74427489      26.01196591       0.00091308      -0.00080620      -0.00063966      -4.45008865 F F F      -0.40586499      -0.51542309      -0.62453668
Ge      18.68713291      10.08259896      27.25277525       0.00052742      -0.00252009       0.00167875      -4.43812902 F F F      -0.07993216       0.99165768       0.98935559
Ge      20.18877210       5.84979246      26.00966363       0.00272118       0.00032536       0.00004183      -4.45293717 F F F      -0.91573349       0.36465343      -1.01194596
Ge      21.64673359       7.23880514      27.33356388      -0.00003617      -0.00070517      -0.00200145      -4.48046646 F F F       0.70308116      -0.15003413       0.56582115
Ge      20.24402325       8.71751238      23.03089756       0.00157999       0.00024634      -0.00215959      -4.46107006 F F F      -1.07343754       0.25972303       0.45490841
Ge      21.64163423      10.09267722      24.52431909       0.00134166      -0.00002661       0.00252574      -4.49724294 F F F      -0.19873884       0.78005469      -0.19813619
Ge      17.26576903       5.93171685      28.98338348      -0.00009965      -0.00088782      -0.00051994      -4.45032956 F F F      -0.24888189       0.10518788       0.18888365
Ge      18.85482401       7.34322934      30.23565735       0.00030031       0.00050401      -0.00116637      -4.48576861 F F F      -0.24909540       0.34054719       0.40334339
Ge      17.22050202       8.71253339      31.69920332       0.00126866       0.00025786      -0.00199537      -4.49926562 F F F       0.13202740      -0.34809724      -0.07706635
Ge      18.61202777      10.17306511      33.15815822       0.00299155       0.00165863       0.00147508      -4.46861900 F F F       0.52317664      -0.36205630      -0.39247636
Ge      20.23674508       5.91209176      31.75013272       0.00069316       0.00114945      -0.00051861      -4.47573223 F F F      -0.01221428      -0.76281198      -0.49802206
Ge      21.68549630       7.35856093      33.10473351      -0.00120867      -0.00135747      -0.00311059      -4.48823273 F F F      -0.18100512       0.13565285       0.29835751
Ge      20.23872894       8.76636397      28.65871505       0.00090084      -0.00435046       0.00186202      -4.48919784 F F F      -0.44699666      -0.31022225       0.45065514
Ge      21.54085087      10.23018423      30.15748656      -0.00081806      -0.00073343       0.00142122      -4.48932431 F F F       0.37090878       0.53185638      -0.07010639
Ge      17.08941197       5.81954984      34.80418295       0.00026980      -0.00125547      -0.00110828      -4.44743214 F F F       1.10928393      -0.29058686      -0.52930414
Ge      18.70915597       7.27440050      36.10292114       0.00345915       0.00030057       0.00346393      -4.47914024 F F F      -0.26236799      -0.95366410       0.57792845
Ge      17.30704844       8.67447253      37.58641821      -0.00026852       0.00361572       0.00018709      -4.47454678 F F F       0.43952710       0.84143858      -0.66985956
Ge      18.86804437      10.16640909      38.88325955       0.00086018       0.00126353       0.00173689      -4.50835712 F F F      -0.33348485       0.09497978      -0.02883939
Ge      20.17419422       5.71106572      37.59151887       0.00236715       0.00118410      -0.00075775      -4.50070460 F F F      -0.01954642       0.63975777      -0.56131836
Ge      21.65518758       7.20668887      38.95412129      -0.00000565      -0.00214938       0.00014014      -4.48864197 F F F       0.33416168      -0.28271245      -0.63601628
Ge      19.98422843       8.61153305      34.54474205      -0.00456309       0.00180342       0.00002366      -4.45509073 F F F       1.00781605       0.69652050      -0.26419332
Ge      21.58811199      10.10538330      35.88700904       0.00328812      -0.00051299      -0.00067251      -4.49122926 F F F       0.35825934      -0.56548789       0.35058943
Ge      17.19003261       5.70065381      40.51675679      -0.00076714      -0.00061650      -0.00010570      -4.45114524 F F F       0.26649582       0.49497364      -1.17592665
Ge      18.73588438       7.16061916      41.71359539       0.00168387       0.00013750       0.00016026      -4.49941141 F F F       0.12728984       0.65027393       0.67361529
Ge      17.29990066       8.64271406      43.28392763      -0.00019836       0.00015533      -0.00114489      -4.47403176 F F F       0.53495191       0.08848108      -0.07554302
Ge      18.69307507      10.29424563      44.64810848      -0.00115176      -0.00136509       0.00148984      -4.47651625 F F F       0.04621958      -0.78865887       0.12709403
Ge      20.16937670       5.76979860      43.23417687       0.00003338      -0.00156652      -0.00456938      -4.43595183 F F F       0.21468018       0.14713978      -0.65425127
Ge      21.69713534       7.07402114      44.62240170       0.00160150      -0.00049865      -0.00061926      -4.47849752 F F F       0.25560064       0.19251069       0.74432164
Ge      20.23068950       8.66048814      40.26984344       0.00311714      -0.00061211      -0.00090920      -4.48324784 F F F      -0.10052388       0.22591008       0.80392505
Ge      21.62420433      10.17333473      41.81678993      -0.00082627       0.00074174       0.00096153      -4.51183153 F F F      -0.59682859      -0.61557755       0.43088507
Ge      17.23735240      11.64648270      46.18488868      -0.00135239      -0.00081793       0.00388438      -4.49696862 F F F       0.41617376       0.29571843       0.20893301
Ge      18.87291388      13.12803187       1.46713817      -0.00204931       0.00035430       0.00119116      -4.43978820 F F F      -1.29054496      -0.64526339      -0.31394567
Ge      17.27551646      14.47871871       2.81196329       0.00104067      -0.00122856       0.00095131      -4.50845681 F F F       0.23783633      -0.04710598       0.70011642
Ge      18.64772116      16.04109953       4.32166479      -0.00011739       0.00061979       0.00078012      -4.48794704 F F F       0.38559991      -0.86955177      -0.14892535
Ge      20.09681787      11.58625880       2.88654994       0.00169170       0.00175109       0.00175703      -4.41530995 F F F       1.34874379       0.00693675      -0.81838145
Ge      21.51437026      13.04634860       4.32588878      -0.00228310       0.00156583       0.00135239      -4.48645895 F F F       0.90307353      -0.23562776      -0.50079555
Ge      20.28797412      14.47748384       0.06371796       0.00102236      -0.00133163      -0.00086073      -4.47068416 F F F       0.34820006       0.17214636      -0.87960671
Ge      21.70624608      15.96853096       1.43553762       0.00280169      -0.00021411       0.00188147      -4.49835235 F F F       0.47930097      -0.01210417      -0.21055295
Ge      17.36297710      11.39164988       5.64032922       0.00075154      -0.00113191      -0.00231252      -4.50069388 F F F      -0.56610902       0.82056125       0.66787004
Ge      18.74021417      12.98148401       7.07291720       0.00013759      -0.00336457      -0.00026029      -4.50863050 F F F      -0.13409372      -0.33569014       0.12250390
Ge      17.34814464      14.31705442       8.65687152       0.00320940       0.00133759       0.00149314      -4.45250751 F F F       0.03805587      -0.34497091       0.03225532
Ge      18.79429757      15.82330455       9.91756021       0.00023702      -0.00257163      -0.00127369      -4.47760072 F F F       0.05084897       0.30978427       1.03204463
Ge      20.21686931      11.63360768       8.55988570      -0.00109749      -0.00160564       0.00042287      -4.46944188 F F F      -0.19853103       0.27489171       0.15018096
Ge      21.67548586      12.97149332      10.07721388       0.00187728      -0.00103551      -0.00003929      -4.49008532 F F F      -0.29103679       0.52408512       0.13713956
Ge      20.14760040      14.48319439       5.73886802      -0.00348580      -0.00178519       0.00091842      -4.47973446 F F F      -0.15079700       0.75797142      -0.06501179
Ge      21.66884541      15.91770473       7.17445060       0.00189062      -0.00447691      -0.00003378      -4.50112608 F F F      -0.19051635      -0.36456849       0.29945249
Ge      17.31876986      11.55342763      11.39259640      -0.00262409       0.00191716      -0.00058199      -4.48974114 F F F       0.17290600       0.37004878      -0.21386138
Ge      18.66706769      12.98785171      12.91964879      -0.00163378      -0.00177429       0.00038165      -4.45818063 F F F      -0.06118144       0.15332153      -0.12060013
Ge      17.28065977      14.46380407      14.36651216      -0.00063901      -0.00056597       0.00107193      -4.49464078 F F F      -0.48115140       0.15079093       0.31854159
Ge      18.66023642      15.85046972      15.96961643       0.00186278       0.00147971      -0.00170052      -4.45136419 F F F      -0.29838557      -0.43989930       0.23938106
Ge      20.17353865      11.58792093      14.23562380       0.00341246      -0.00017457      -0.00033933      -4.47248896 F F F       0.45607164      -0.78742857      -0.01834100
Ge      21.66829909      12.80378326      15.78945246      -0.00082516       0.00051416       0.00077950      -4.49341253 F F F       0.17120763       0.94099148      -0.03019150
Ge      20.14420513      14.43498336      11.60115114       0.00197476      -0.00249915      -0.00009500      -4.49982428 F F F       0.68265179       0.18665475      -0.63473724
Ge      21.62425647      15.83771960      13.16234691      -0.00174644      -0.00221903       0.00034829      -4.46114322 F F F      -0.67042277      -0.24804516      -0.83145278
Ge      17.25173071      11.52940404      17.27251530       0.00093006      -0.00063549       0.00107649      -4.48653899 F F F       0.33831441       0.25985734       0.38017837
Ge      18.79515641      12.97696973      18.72938622      -0.00089285       0.00308267       0.00047533      -4.47956021 F F F      -0.46324568       0.48242458      -0.76276264
Ge      17.24878400      14.43476304      20.08440386      -0.00004864       0.00175210       0.00222478      -4.50992416 F F F       0.16277642       0.12315154      -0.13514040
Ge      18.82787980      15.71835421      21.54048982       0.00250501      -0.00174542      -0.00190236      -4.48213005 F F F      -0.70734198       0.55115001       0.46809221
Ge      20.08437648      11.63048039      20.26905570       0.00281982       0.00118830      -0.00197298      -4.47521681 F F F       0.37109023      -0.47155292      -0.12082014
Ge      21.67984043      13.07854230      21.52867007       0.00277603      -0.00035728       0.00156912      -4.48853814 F F F      -0.07667118      -0.65690398       0.31377268
Ge      20.34207675      14.44288929      17.21822916       0.00016389      -0.00150630       0.00003654      -4.47614192 F F F      -0.66722075      -0.55292874       0.33709164
Ge      21.60592909      15.94511917      18.74150725       0.00043525       0.00089510      -0.00093331      -4.49458503 F F F       0.14300970       0.02474373      -0.30088233
Ge      17.21919669      11.54210586      23.03391954       0.00041286      -0.00288857      -0.00037811      -4.49973503 F F F       0.08247174       0.03688488       0.31526874
Ge      18.67281024      13.06117123      24.40858742       0.00310635       0.00163953      -0.00043376      -4.51200898 F F F       0.27192869      -0.57278524       0.16556866
Ge      17.35530327      14.50673386      25.93541921       0.00018504      -0.00145799       0.00037665      -4.48117883 F F F      -0.57508760      -0.05778049      -0.06715210
Ge      18.74609175      15.94116462      27.36161174       0.00357185      -0.00231442       0.00118007      -4.47840759 F F F      -0.01863240       0.34973253      -0.16300583
Ge      20.09650890      11.58608773      25.92029178      -0.00161782       0.00080850       0.00101049      -4.49736125 F F F       0.05923353       0.00146502      -0.65246707
Ge      21.44702179      13.13835462      27.28555053       0.00243073      -0.00152149      -0.00007289      -4.47229514 F F F       0.62024147      -0.15979948       0.45528120
Ge      20.27784095      14.39735505      23.04752532       0.00052578      -0.00197543       0.00230780      -4.47966854 F F F      -0.09537948       0.21692088       0.27917316
Ge      21.68146929      15.78119089      24.62800166       0.00063890       0.00017211      -0.00447726      -4.48993965 F F F      -0.47061028       0.43871304      -0.66994248
Ge      17.28024581      11.67955090      28.83361758      -0.00187714      -0.00009195       0.00182868      -4.48630135 F F F       0.40405485       0.27755540      -0.69007309
Ge      18.79434075      13.07889593      30.35389264      -0.00217166      -0.00142431       0.00419905      -4.49259737 F F F      -0.20684735      -0.49568068      -0.15553212
Ge      17.38153676      14.54117762      31.74032417      -0.00310408      -0.00085757      -0.00182654      -4.49890682 F F F      -0.87047513      -0.34850418      -0.04399894
Ge      18.72156412      16.03279474      33.16498377       0.00071948       0.00181811      -0.00165869      -4.40113965 F F F      -0.36020514      -0.41253604      -0.03032805
Ge      20.24537833      11.61696213      31.81263178       0.00153428       0.00128695       0.00276564      -4.50627385 F F F      -0.15814231       0.05175926      -0.26751261
Ge      21.84058543      13.08699931      33.11582906       0.00264346       0.00298894      -0.00031529      -4.46111892 F F F      -0.76434996       0.28147711       0.02934580
Ge      20.08646761      14.57399876      28.87062920       0.00035210       0.00216697       0.00172839      -4.48148630 F F F       0.66863082      -0.43185297      -0.18396135
Ge      21.65340353      15.93180502      30.24687441      -0.00000665      -0.00077407       0.00248415      -4.47621038 F F F      -0.47545927      -0.10726136       0.44275820
Ge      17.34049043      11.55929637      34.66149111      -0.00503381       0.00098415      -0.00075748      -4.47489698 F F F      -0.54970736       0.76422382      -0.03079946
Ge      18.94271416      13.00101542      35.94582762      -0.00269693       0.00163631      -0.00062916      -4.48458328 F F F      -0.56075552       0.13486132       0.26487642
Ge      17.31276499      14.30856806      37.39689502       0.00075827      -0.00032823       0.00090599      -4.48927387 F F F      -0.21586797      -0.35932967      -0.11660419
Ge      18.74288347      15.76603902      38.80728005      -0.00231021      -0.00364797       0.00336026      -4.45960278 F F F       0.52591460       0.72839992       0.53703198
Ge      20.35769537      11.59622029      37.45129493       0.00001736      -0.00201991      -0.00091047      -4.49202361 F F F      -0.25464696      -0.06853076      -0.08200253
Ge      21.74892129      13.05553651      38.91463040       0.00053717      -0.00077909       0.00006593      -4.47547262 F F F       0.04464016      -0.19777767      -0.08303922
Ge      20.17570183      14.60225718      34.47835296      -0.00019653       0.00155098       0.00041705      -4.47645730 F F F       1.18093990      -0.55478018       0.57622954
Ge      21.71564375      16.01079524      36.05354574       0.00142084       0.00034067      -0.00353008      -4.47332128 F F F      -0.32955357      -0.34195886      -1.02185277
Ge      17.48277825      11.59199831      40.42392855      -0.00105756      -0.00198932       0.00004759      -4.47570433 F F F      -0.80693780      -0.22327441      -0.85215944
Ge      18.83454682      13.09673795      41.76498764       0.00025330       0.00142678       0.00066790      -4.44962517 F F F       0.22169073       0.74950422      -0.28978123
Ge      17.33792379      14.44947312      43.21699084      -0.00087349      -0.00159331       0.00176336      -4.47772821 F F F       0.42043671       0.01355796       0.61124265
Ge      18.76010889      15.87360992      44.77389160      -0.00034795       0.00126885      -0.00182985      -4.51386698 F F F       0.19346497      -0.01469034      -0.52569411
Ge      20.13969507      11.68625355      43.19718326       0.00459893      -0.00007282      -0.00088999      -4.46960283 F F F       0.83380772      -0.45818666       0.59159527
Ge      21.73702908      12.95471213      44.73423033       0.00083458      -0.00136885      -0.00003085      -4.50066607 F F F      -0.08252787       0.35681723      -0.17642230
Ge      20.44007455      14.54509544      40.34563881      -0.00587655      -0.00065391       0.00443214      -4.47723768 F F F      -1.40732387      -0.11301999      -0.15753922
Ge      21.66493202      16.04331875      41.85055840      -0.00113642      -0.00088700       0.00071290      -4.45166993 F F F       0.32032848      -0.67975538       0.24932202
Ge      17.29842528      17.34981977      46.12959403       0.00062062       0.00065134       0.00051216      -4.47157979 F F F       0.65314410      -0.39939204       0.75969880
Ge      18.98715051      18.69750635       1.39045889      -0.00194660      -0.00029511       0.00000572      -4.50609958 F F F      -0.63222757      -0.11680382       0.14294374
Ge      17.50199464      20.10408346       2.85084052      -0.00100720      -0.00187265       0.00070363      -4.46705214 F F F       0.11175175       0.32801108      -0.02025271
Ge      18.80119713      21.74302418       4.20257330      -0.00135297      -0.00149520       0.00116027      -4.50288708 F F F       0.20320833      -0.02995787       0.06701320
Ge      20.35330697      17.31217267       3.00680013       0.00098380       0.00058189      -0.00146639      -4.43203808 F F F      -0.77786637      -0.08364525      -0.70955504
Ge      21.67981111      18.78889424       4.34888232      -0.00029322      -0.00118573       0.00299191      -4.47525853 F F F       0.91294255       0.18843403       0.49451918
Ge      20.24572516      20.31344720      46.17143538      -0.00150615       0.00013785      -0.00194718      -4.49297813 F F F       0.26194536      -0.46382395      -0.04876981
Ge      21.70603309      21.70115321       1.45470146      -0.00003167       0.00030698      -0.00092987      -4.48705596 F F F       0.24398626      -0.20174027      -0.60670113
Ge      17.22111265      17.33323476       5.84082681       0.00108600      -0.00259305      -0.00016141      -4.47119689 F F F       0.11414236       0.85293206      -0.24971779
Ge      18.72413870      18.86069883       7.17639102       0.00185668      -0.00226543       0.00358121      -4.47442264 F F F      -0.26799406       0.11981438      -0.61754735
Ge      17.35651748      20.20765031       8.72082003      -0.00023257      -0.00065563      -0.00221205      -4.49763256 F F F       0.03169749       0.33044715      -0.13278930
Ge      18.83617942      21.61674592      10.17387781      -0.00298206      -0.00109305      -0.00268460      -4.50124681 F F F      -0.28347058      -0.04856499      -0.34544804
Ge      20.07876811      17.39753393       8.49740211       0.00535364      -0.00124070      -0.00045351      -4.45832618 F F F       1.13486574      -0.59500509       0.55584559
Ge      21.64801285      18.68770507      10.01254654       0.00098599       0.00050509      -0.00057477      -4.47174327 F F F       0.03650970      -0.05108526      -0.70933885
Ge      20.19227076      20.27151845       5.67812261      -0.00316105      -0.00200067       0.00298531      -4.50875321 F F F       0.00763739       0.13703655       0.11844060
Ge      21.66554285      21.78124794       7.03429192      -0.00293343      -0.00287206       0.00137995      -4.48843615 F F F      -0.05615679      -0.35226523       0.07352900
Ge      17.41151448      17.40446958      11.43725910       0.00152855       0.00054873       0.00146456      -4.48528859 F F F      -0.18144080      -0.84499716      -0.10932555
Ge      18.84366833      18.59367917      13.01180717       0.00007221      -0.00184079       0.00060420      -4.46487841 F F F      -0.34726752       0.86823847      -0.04068580
Ge      17.40756182      20.15418581      14.50138979       0.00341087      -0.00177770       0.00065367      -4.48640900 F F F      -0.23495317      -0.22587049      -0.60733571
Ge      18.90044509      21.47398633      15.90067595       0.00191101      -0.00055527      -0.00187315      -4.43984964 F F F      -0.54080408       1.16056409       0.11565728
Ge      20.07133223      17.14862544      14.54172047      -0.00337018      -0.00109827      -0.00144763      -4.43157002 F F F       0.84384140       0.69785034      -0.25982164
Ge      21.70133320      18.67456804      15.70745155      -0.00153301      -0.00224996       0.00351138      -4.49174357 F F F      -0.56854300       0.46095708       0.03484596
Ge      20.19854933      20.02191099      11.43912601      -0.00028937      -0.00195215       0.00018924      -4.46883196 F F F       0.14698175       0.30380928       0.74253661
Ge      21.57784757      21.56408824      12.86684662      -0.00163110      -0.00123731      -0.00123801      -4.50997942 F F F      -0.39971049       0.33486096       0.40168205
Ge      17.26828504      17.49868265      17.32300588       0.00014716       0.00026023      -0.00186854      -4.50108482 F F F       0.09870056      -0.38389804       0.05807950
Ge      18.68745759      18.84519537      18.84934500      -0.00028615      -0.00124432       0.00260939      -4.49531198 F F F      -0.03729865       0.37330206      -0.32360533
Ge      17.22107542      20.29723671      20.35510734       0.00316226       0.00006075      -0.00118031      -4.50027850 F F F      -0.22232733      -0.51069764      -0.64484032
Ge      18.77153577      21.72568432      21.59866888      -0.00240086      -0.00022109       0.00011073      -4.47484500 F F F      -0.27531965       0.16884155       0.64942839
Ge      20.06181353      17.31993384      20.16701614      -0.00425494      -0.00385395      -0.00076958      -4.46825280 F F F       0.68654105      -0.04145687      -0.04922069
Ge      21.64129662      18.74473783      21.50856809      -0.00006619       0.00158837      -0.00421972      -4.48819080 F F F      -0.69453487       0.13090653       0.36093213
Ge      20.31668822      20.13097870      17.30998458      -0.00239350       0.00303843      -0.00066655      -4.46495956 F F F      -0.06011593      -0.81760461       0.16430596
Ge      21.65932396      21.60387504      18.70185949      -0.00192798       0.00153477       0.00232583      -4.48329408 F F F      -0.03438048       0.34115949       0.41901358
Ge      17.35243507      17.28652737      23.00130777       0.00193062       0.00037684       0.00105004      -4.49063470 F F F      -0.06169608      -0.36815940       0.18804514
Ge      18.66152092      18.79937188      24.48488399       0.00121928      -0.00162862       0.00068188      -4.48337951 F F F      -0.23787435       0.25142528       0.00025305
Ge      17.20794770      20.16124508      26.12802790       0.00241216      -0.00029344       0.00005407      -4.46369452 F F F       0.04455332      -0.07717050      -1.13187456
Ge      18.68511243      21.56634431      27.40648998      -0.00102997      -0.00069925      -0.00001377      -4.44032823 F F F       1.00122539       0.36767014      -0.37538048
Ge      20.12608840      17.36609012      25.81571305       0.00029242      -0.00059826      -0.00056491      -4.47992895 F F F       0.36727661      -0.48173627       0.50454390
Ge      21.58955828      18.68753887      27.32559479       0.00396649      -0.00040319       0.00230090      -4.50866082 F F F       0.36220653       0.42964888       0.15395220
Ge      20.11673177      20.19113014      23.01466990      -0.00015251       0.00298956       0.00141526      -4.49677236 F F F       0.82784720       0.23980404       0.00224090
Ge      21.71968895      21.71776756      24.39145120      -0.00153988      -0.00214631      -0.00075901      -4.47619677 F F F      -0.67493892      -0.43037391       0.34193500
Ge      17.31638395      17.26872615      28.87106037      -0.00088338       0.00106652       0.00002633      -4.48931547 F F F      -0.87158719      -0.10336725      -0.25047114
Ge      18.75509567      18.71458706      30.18609122       0.00128223       0.00428471       0.00157643      -4.47235224 F F F       0.09840742       0.07465099       0.87967031
Ge      17.51762483      20.23012993      31.74206292       0.00177321      -0.00334947      -0.00071523      -4.49225619 F F F      -0.94008716      -0.32713643      -0.09073489
Ge      18.93168017      21.67985622      33.13936480       0.00300088       0.00118596       0.00075252      -4.41326455 F F F      -1.03137412      -0.29989441       1.13359502
Ge      20.15155503      17.30402997      31.74040721       0.00126062       0.00279214      -0.00074970      -4.48182253 F F F       0.68989811       0.60016069      -0.92298735
Ge      21.72365892      18.76123039      33.00321206      -0.00185313      -0.00013199       0.00172258      -4.48934826 F F F      -0.08715995      -0.47644820       0.72550094
Ge      20.14636418      20.12832180      28.78678196       0.00037813       0.00190073       0.00371785      -4.48635626 F F F       0.50620068       0.17110766      -0.31569289
Ge      21.55109833      21.69596135      30.14059093      -0.00178097      -0.00004296       0.00131239      -4.47977421 F F F       0.16674447      -0.24511706       1.06082477
Ge      17.18234361      17.27072709      34.58693484      -0.00296616       0.00109003      -0.00423851      -4.46420796 F F F      -0.03651576       0.45054182      -0.10303730
Ge      18.63808748      18.67477611      35.99229299       0.00122960       0.00031194       0.00209150      -4.48334349 F F F       0.99239861       0.35722701      -0.14911421
Ge      17.23914235      20.12542736      37.39934969       0.00108937      -0.00184235       0.00192331      -4.49016139 F F F      -0.29546830       0.46852066      -0.20927500
Ge      18.60526650      21.64299230      38.86292026       0.00207842       0.00078113       0.00335188      -4.44267396 F F F       0.18086776      -0.53441058       0.47689015
Ge      20.26164733      17.37799232      37.44117120       0.00403380      -0.00092623       0.00066418      -4.48219150 F F F      -0.71463913      -0.00065821       0.56444275
Ge      21.67111959      18.79722161      39.01670055      -0.00200671      -0.00271084      -0.00195535      -4.46651492 F F F      -0.03987043      -0.02460984      -1.16127403
Ge      20.28607722      20.09660420      34.51787705      -0.00034518      -0.00102812      -0.00038634      -4.47831804 F F F      -0.79722129      -0.37484062       0.03544636
Ge      21.64201776      21.49892286      35.93443835      -0.00103381      -0.00370225      -0.00121392      -4.47717891 F F F       0.33073315       0.75054635       0.68800299
Ge      17.30659804      17.35148003      40.30979698       0.00062801      -0.00137280      -0.00333306      -4.46336304 F F F       0.13189277      -0.84946080      -0.72203716
Ge      18.70811489      18.75234440      41.68134517      -0.00063657       0.00078791       0.00209499      -4.47420377 F F F       0.49555061       0.70422577       0.57641321
Ge      17.33753778      20.18702425      43.29400557       0.00032280       0.00275674       0.00066284      -4.48884050 F F F      -0.17385814      -0.56461147       0.00930985
Ge      18.69902443      21.60578530      44.77873829       0.00151486      -0.00136794      -0.00056826      -4.43937130 F F F      -0.01849038       0.78136750       0.28858601
Ge      20.13511753      17.38648318      43.19992107      -0.00060320      -0.00339420       0.00285177      -4.50583161 F F F      -0.25269133      -0.11318144       0.61697046
Ge      21.60867280      18.82981863      44.65278379      -0.00186807      -0.00139968      -0.00097823      -4.49406738 F F F      -0.38815608      -0.03155915       0.26153411
Ge      20.21125830      20.23675748      40.30262901      -0.00181503       0.00076481       0.00345190      -4.49035861 F F F      -0.51552272       0.59200873       0.52931310
Ge      21.63910881      21.73271813      41.84027591      -0.00020243       0.00025010      -0.00323144      -4.46687330 F F F      -1.12935084       0.27821050      -0.22201421
Ge      17.52537982      23.30176609       0.18240490      -0.00134991       0.00058493      -0.00115673      -4.43525749 F F F      -0.68173226      -0.57832435      -1.29182968
Ge      18.90888280      24.82773879       1.53975075      -0.00017153      -0.00118847      -0.00283862      -4.42166298 F F F      -0.26905227      -0.14114820      -0.55917407
Ge      17.29277946      26.07608866       2.89883570      -0.00046766      -0.00050983       0.00070367      -4.47788376 F F F      -0.36478321       0.03930817      -0.03179954
Ge      18.75732012      27.42487626       4.32415051      -0.00179039      -0.00021783       0.00368868      -4.50498697 F F F       0.37520984       0.10836871       0.19557663
Ge      20.28390672      23.21193869       2.70344470       0.00062514       0.00176013       0.00023667      -4.43566297 F F F      -0.50509025      -0.48653632       0.84696963
Ge      21.63828415      24.55864619       4.20023080      -0.00247251       0.00033612      -0.00176249      -4.45274196 F F F       0.28683958      -0.08359360       0.19318900
Ge      20.30786245      26.07510751      46.10088330       0.00247174       0.00058508      -0.00140757      -4.50766360 F F F       0.15681636      -0.07775891       0.08820292
Ge      21.76228892      27.49269840       1.39864082       0.00096340       0.00081856      -0.00017781      -4.50527261 F F F       0.19648469      -0.24828821      -0.33587335
Ge      17.37822107      23.06259049       5.80144189       0.00142009      -0.00298049      -0.00005427      -4.48883229 F F F      -0.54078639      -0.01249490      -0.54789310
Ge      18.81675135      24.41776071       7.21432544      -0.00118877       0.00008166      -0.00258668      -4.49679781 F F F       0.44737188       0.51855881      -0.09042617
Ge      17.30603614      25.82296973       8.61076924       0.00006639       0.00274816      -0.00062986      -4.47066609 F F F       0.00868966       0.21650650      -0.38501579
Ge      18.65724503      27.32714079       9.97016417       0.00374435      -0.00196440      -0.00078064      -4.47570753 F F F       1.01343795      -0.15669697       0.48709185
Ge      20.27054451      23.01788807       8.67431983      -0.00301170      -0.00242969      -0.00249282      -4.49723085 F F F      -0.00405912       0.33854591       0.04725307
Ge      21.70712451      24.53537808      10.08767173      -0.00092269      -0.00170326       0.00034661      -4.49574200 F F F      -0.19802345       0.08072093      -0.08231399
Ge      20.27778918      25.92267334       5.68878414       0.00228913      -0.00160006      -0.00236893      -4.50273579 F F F      -0.97116051      -0.12009254       0.38369380
Ge      21.64859827      27.32126482       7.15314005       0.00069547       0.00187024       0.00247312      -4.47246295 F F F      -0.01257392       0.29120452       0.50743128
Ge      17.37998657      23.05772892      11.58390558      -0.00269106       0.00006907      -0.00077472      -4.50939822 F F F      -0.19260014      -0.14244405       0.15048936
Ge      18.73788355      24.56745118      12.98783272       0.00387834      -0.00153011       0.00078074      -4.49542802 F F F       0.22482513       0.38540893      -0.34488238
Ge      17.18774877      25.97178449      14.37656232       0.00249348      -0.00102591      -0.00186082      -4.47096880 F F F       0.54226141      -0.70293944       0.55671490
Ge      18.78593757      27.29935816      15.77243306       0.00350372       0.00098861      -0.00092212      -4.47942561 F F F      -0.07868900       0.38626552      -0.19629536
Ge      20.09426495      23.07068220      14.41658717       0.00079449      -0.00014586       0.00255396      -4.47608358 F F F       0.55626999      -0.47885901      -0.58691200
Ge      21.67293855      24.51509604      15.63479207       0.00104636       0.00101966      -0.00254240      -4.46434969 F F F      -0.47313656      -0.16119197       1.14826627
Ge      20.28887369      26.06860853      11.53299302       0.00162700       0.00092549       0.00197711      -4.49324211 F F F      -0.47079760      -0.34168686       0.15795593
Ge      21.69543562      27.48992073      13.11729680      -0.00096503      -0.00072963       0.00157827      -4.48087243 F F F       0.24499450      -0.26808370      -0.90134378
Ge      17.47409775      23.17693692      17.24002859       0.00102873      -0.00187730       0.00005639      -4.46856106 F F F      -0.70696298      -0.87178007       0.04470414
Ge      18.71039246      24.60961304      18.83531294       0.00024737       0.00121004      -0.00085434      -4.47488237 F F F       0.06812609       0.34092595      -0.35868415
Ge      17.12003443      25.99825849      20.27501357      -0.00295198      -0.00044097      -0.00352631      -4.47395362 F F F       0.51090647       0.16457936      -0.45662378
Ge      18.60407365      27.37441940      21.75120058       0.00063186       0.00245590      -0.00142470      -4.50056393 F F F       0.43273849       0.53888505      -0.37144764
Ge      20.18027219      23.10900635      20.12188694      -0.00010838      -0.00166769      -0.00152256      -4.49342431 F F F       0.19519199      -0.21515645      -0.10243557
Ge      21.57434674      24.57163910      21.55661500      -0.00014618      -0.00060968      -0.00132452      -4.49744972 F F F       0.37009986      -0.32790235       0.37486558
Ge      20.21249366      25.96037314      17.23482436       0.00151513      -0.00362545       0.00060677      -4.48479648 F F F       0.38921461      -0.40413179       0.33037372
Ge      21.67933856      27.40851828      18.70806493      -0.00151868       0.00296389      -0.00065662      -4.50285032 F F F      -0.60111210       0.23796380       0.20948354
Ge      17.33094131      23.14781482      23.17203036       0.00023913      -0.00395143      -0.00117563      -4.50098883 F F F       0.39804940       0.40567898      -0.18683722
Ge      18.78874487      24.63928890      24.72022686       0.00092995      -0.00007472       0.00131902      -4.45249511 F F F      -0.48588744      -0.03088886      -1.08890541
Ge      17.13177150      26.07471130      25.95283623       0.00199202       0.00022067      -0.00074689      -4.46571114 F F F       0.74900200      -0.57397243       0.84816280
Ge      18.73397287      27.37801402      27.47339578       0.00160982       0.00118097      -0.00205372      -4.49162397 F F F      -0.82380111       0.02832782       0.20721622
Ge      20.22334939      23.06903821      25.90950785      -0.00041279      -0.00288896      -0.00012246      -4.47527503 F F F       0.25745883      -0.15746162       0.89691006
Ge      21.72377062      24.52345839      27.49757708       0.00177216       0.00077157       0.00214948      -4.49595192 F F F       0.21463658      -0.42854425      -0.85103880
Ge      20.19527161      25.97704435      23.04756545       0.00302554      -0.00176105       0.00172999      -4.48674379 F F F      -0.26927781       0.11020220       0.75641518
Ge      21.58241075      27.44165199      24.62598774       0.00117544      -0.00041904       0.00111632      -4.47627422 F F F      -0.33357498      -0.17400579      -0.74677303
Ge      17.30441264      22.96369142      28.80437951       0.00146719      -0.00197835      -0.00183971      -4.48089633 F F F      -0.82361799       0.93012085       0.52453774
Ge      18.65395425      24.59963803      30.21585628      -0.00041464       0.00182925      -0.00090073      -4.50495167 F F F       0.36263074      -0.53455190       0.02735418
Ge      17.37072369      25.98797042      31.81918110      -0.00163273      -0.00161526       0.00024948      -4.45860074 F F F       0.15354356      -0.26575430       0.24389560
Ge      18.71911292      27.53430879      33.23178401       0.00056860       0.00115988       0.00080173      -4.46135261 F F F       0.41619074      -0.73410201      -0.16991563
Ge      20.09444758      23.12666501      31.69842179      -0.00188329       0.00002535      -0.00212965      -4.44453991 F F F       0.98058002       0.69907577      -1.03971552
Ge      21.63083928      24.55664779      33.09393149      -0.00015105      -0.00023531      -0.00359029      -4.50013073 F F F      -0.14260529       0.01724721       0.35458611
Ge      20.25764721      25.94814375      28.82485645       0.00136822      -0.00265196       0.00056432      -4.46762348 F F F      -0.47171697       0.22520763       0.35048871
Ge      21.58377866      27.49128756      30.27044597       0.00061494      -0.00303090      -0.00128494      -4.49216808 F F F       0.40680875      -0.31288972       0.01640673
Ge      17.32659437      23.11160963      34.67905233      -0.00374186      -0.00109795      -0.00080278      -4.48183241 F F F       0.20377624      -0.89704861      -0.06163424
Ge      18.74801650      24.49030630      36.17939981       0.00252006       0.00053493       0.00038606      -4.45088592 F F F       0.83161185      -0.45334336      -0.28284150
Ge      17.36058887      26.00597589      37.43462092       0.00182038       0.00161610       0.00124661      -4.42666240 F F F      -0.42898480       0.35197885       1.21929396
Ge      18.89173190      27.50617727      38.96220207      -0.00104305       0.00101146      -0.00212948      -4.46921923 F F F      -0.58184261      -0.12791149      -1.01436080
Ge      20.26609614      22.89262298      37.63007894      -0.00025610      -0.00142459      -0.00035272      -4.43668538 F F F       0.29742310       1.01676791      -1.05963582
Ge      21.76750677      24.58652874      38.91034191       0.00124371      -0.00101122       0.00093161      -4.46904085 F F F      -0.06930348      -0.68734544      -0.44390421
Ge      20.10283054      25.97248856      34.61964129       0.00146011       0.00050323      -0.00223598      -4.49039192 F F F       0.67264000       0.06894860       0.09903430
Ge      21.73210192      27.56177763      35.92870525      -0.00044622       0.00018851       0.00077496      -4.46768598 F F F      -0.74909765      -0.50207456      -0.08381941
Ge      17.22685343      23.19733226      40.24752904       0.00348880       0.00109068       0.00178291      -4.47891894 F F F       0.20837815      -0.53344651       0.64529054
Ge      18.66117370      24.60371315      41.74497481      -0.00338662       0.00159745       0.00037296      -4.51028340 F F F       0.36757765       0.09013282       0.07172986
Ge      17.21847194      26.02707271      43.26999243       0.00497825       0.00114524       0.00014030      -4.47336847 F F F       0.39628705      -0.30681766      -0.31502285
Ge      18.82942939      27.39660306      44.58926703       0.00256277       0.00120247      -0.00189316      -4.49420473 F F F      -0.10563565      -0.06110196       0.17166269
Ge      20.01905260      23.13419556      43.33536998       0.00055039      -0.00052975       0.00048021      -4.48308912 F F F       0.53091231      -0.21299357      -0.70435231
Ge      21.62176418      24.40373865      44.77595458       0.00027988       0.00181121       0.00167565      -4.48728508 F F F       0.05428633       0.81143906      -0.52251229
Ge      20.25396136      25.95628546      40.21022072       0.00142177       0.00010052      -0.00069803      -4.42697590 F F F      -0.47579773      -0.36640004       0.94710730
Ge      21.59850791      27.34673232      41.71261814      -0.00449144       0.00194119       0.00033112      -4.50865555 F F F       0.59165683      -0.01831804       0.32972659
Ge      17.50812789      28.79762472      46.14225395       0.00291381       0.00062565       0.00054056      -4.48040118 F F F      -0.64206540       0.02329670      -0.08732489
Ge      18.81513474      30.23984468       1.47026386       0.00031150      -0.00093119      -0.00009639      -4.45040198 F F F      -0.38224076      -0.48861957       0.58855173
Ge      17.25685364      31.66912796       2.82460355      -0.00168207       0.00344942      -0.00052980      -4.46306061 F F F       0.91774018       0.04393898       0.25286333
Ge      18.59629337      33.16955987       4.37525759       0.00189466       0.00078609      -0.00089242      -4.49551865 F F F       0.61256973       0.15665001      -0.46723932
Ge      20.30284150      28.78325730       2.88458837      -0.00018675      -0.00112756       0.00156746      -4.50213715 F F F      -0.19344485       0.61078021       0.25718016
Ge      21.69118219      30.35219399       4.33626451      -0.00026242      -0.00052179      -0.00006996      -4.48728590 F F F       0.34312479      -0.27185684      -0.27306083
Ge      19.98833880      31.61326809      46.10921476      -0.00046163       0.00141108       0.00304575      -4.44350806 F F F       1.29180372       0.70200581      -0.18123324
Ge      21.47621506      33.06804727       1.47593777       0.00107848      -0.00104519       0.00051346      -4.48527550 F F F       0.03999474      -0.02570196      -0.38165632
Ge      17.37961370      28.89949719       5.78855235      -0.00076744       0.00213341       0.00299488      -4.50736383 F F F      -0.01435516      -0.09739782      -0.09020306
Ge      18.82877570      30.31795253       7.18872062       0.00494878       0.00084181      -0.00102492      -4.49430777 F F F      -0.18177332      -0.02885383       0.62161924
Ge      17.19113181      31.74513528       8.58692618       0.00280710      -0.00096587       0.00191882      -4.49169743 F F F       0.20995884      -0.85569130       0.26323476
Ge      18.68703508      33.07512961      10.03370013       0.00133996      -0.00226757       0.00026233      -4.48676229 F F F       0.14673692       0.69515464       0.05025204
Ge      20.23563676      28.77940703       8.68801494       0.00117537       0.00026477       0.00245203      -4.49081327 F F F      -0.53124836      -0.02816134      -0.85043191
Ge      21.58726900      30.25893424      10.04914300       0.00040894      -0.00081441       0.00062310      -4.48507856 F F F       0.64207736       0.59163567       0.10784581
Ge      20.16544084      31.78942063       5.72432309      -0.00132534       0.00220062       0.00055191      -4.47871460 F F F       0.43789804       0.19935092       0.25816771
Ge      21.63885098      33.29170304       7.22738455      -0.00114615       0.00094882       0.00017805      -4.47983897 F F F       0.37288038      -0.52787560      -0.45535478
Ge      17.33424191      28.70717513      11.49440524      -0.00086204       0.00067480      -0.00005020      -4.42787193 F F F      -0.13744993       0.42645964      -0.34620972
Ge      18.67168376      30.22065746      12.84214782      -0.00316696      -0.00296131      -0.00108799      -4.50035826 F F F       0.36493911       0.20679465       0.78427302
Ge      17.26582996      31.63893146      14.39557731      -0.00141142      -0.00181822      -0.00127374      -4.47518294 F F F       0.34968148      -0.60316087       0.55879391
Ge      18.70392708      33.08595592      15.88336419      -0.00133187       0.00073152       0.00209359      -4.47483766 F F F      -0.22686895      -0.67844018       0.43671141
Ge      20.16122764      28.90059346      14.39187725      -0.00051812       0.00143739       0.00223304      -4.50124562 F F F      -0.20622052       0.00992188       0.24864431
Ge      21.49044281      30.35441794      15.94475938      -0.00199360       0.00358631       0.00242966      -4.49701862 F F F       0.85669730      -0.37224690      -0.22635610
Ge      20.11821157      31.71232387      11.52489459      -0.00248976      -0.00363656      -0.00056793      -4.50027655 F F F       0.46939688      -0.14787293      -0.27429423
Ge      21.60129146      33.09983744      13.01017843      -0.00288138       0.00043422       0.00341325      -4.48834333 F F F       0.45522257       0.14284044      -0.59618595
Ge      17.46055657      28.86407137      17.14497383      -0.00097182       0.00262015       0.00477956      -4.44822224 F F F      -0.25193995      -0.49167182       1.21047454
Ge      18.69724771      30.22190422      18.91929034       0.00025712       0.00226613       0.00132123      -4.44805844 F F F      -0.27012586       0.74418202      -1.11990907
Ge      17.28980308      31.77295478      20.28160229      -0.00005345      -0.00219908       0.00184464      -4.46389541 F F F      -0.89829447      -0.59078777      -0.58159344
Ge      18.73268801      33.21791430      21.52663596      -0.00004636      -0.00190101      -0.00067991      -4.43603422 F F F       0.36217813       0.90828444       0.62936764
Ge      20.11773184      28.84372301      20.22741549       0.00105191      -0.00256744      -0.00003240      -4.45193927 F F F       0.47127377      -1.05022084       0.43770713
Ge      21.51717934      30.34217758      21.63223266      -0.00295470       0.00433616      -0.00102281      -4.52147603 F F F       0.08774260       0.07186610       0.33040058
Ge      20.15442992      31.72308801      17.45105302       0.00340604       0.00238166      -0.00221568      -4.47844126 F F F      -0.51247655      -0.02138690      -0.17807526
Ge      21.75221648      33.20811152      18.57581639      -0.00124478       0.00070734       0.00164452      -4.48120911 F F F      -0.10581170       0.31346189       0.80907920
Ge      17.35790957      28.99940241      23.22520949       0.00068521      -0.00018939      -0.00192934      -4.47054006 F F F       0.10316846      -0.39494490      -0.20079831
Ge      18.81267823      30.48446114      24.58880497       0.00354528       0.00090302      -0.00107772      -4.47064355 F F F       0.20665726      -0.80802965       0.20299504
Ge      17.35680141      31.74589200      26.08288708      -0.00238867      -0.00378166       0.00184507      -4.46181660 F F F      -0.99553861      -0.06376432       0.18493386
Ge      18.77090043      33.26510235      27.42649497      -0.00083645      -0.00174162       0.00542753      -4.50407180 F F F       0.31500873       0.11692002       0.04432196
Ge      20.11795705      28.79970748      26.07160801       0.00077053      -0.00147435      -0.00068499      -4.45473334 F F F      -0.06230156       0.84152489      -0.69363814
Ge      21.59277770      30.36230802      27.30040991      -0.00017265       0.00180241      -0.00040906      -4.45247683 F F F       0.33079538      -0.22780452       0.32346769
Ge      20.13467812      31.94264781      23.08510102      -0.00250217      -0.00021963      -0.00148669      -4.49575113 F F F       0.58041948      -0.53984090      -0.24446640
Ge      21.69792525      33.31089961      24.46861790      -0.00048216      -0.00452830      -0.00189816      -4.47270142 F F F      -0.65885125       0.17670939       0.33598994
Ge      17.26766921      28.85014653      28.99655391      -0.00122978      -0.00186767      -0.00105785      -4.47183816 F F F       0.34008827      -0.40550103       0.36427326
Ge      18.78692082      30.42646204      30.32953434      -0.00062212      -0.00371798      -0.00371271      -4.45325567 F F F       0.01802393       0.08227920       0.28223830
Ge      17.30707741      32.03573056      31.86049858      -0.00026434      -0.00135385      -0.00179487      -4.42283810 F F F       0.05853341      -1.62800982      -0.62561908
Ge      18.65782620      33.23724993      33.43572475      -0.00248760      -0.00131490       0.00059396      -4.47824301 F F F       0.54225074       0.75022746       0.07294049
Ge      20.25501709      28.87040920      31.83370030       0.00064425       0.00073071      -0.00274133      -4.47294524 F F F      -0.48357636       0.75450204      -0.48340811
Ge      21.60316319      30.49643481      33.15234528       0.00283887       0.00057940       0.00140452      -4.48163318 F F F       0.86881619      -0.51797664      -0.10872102
Ge      20.31996463      31.84315552      28.78463290      -0.00039912       0.00019813      -0.00084461      -4.47325763 F F F      -0.59294896       0.13325727       0.85124853
Ge      21.64010121      33.37669775      30.38605984       0.00367402       0.00157550       0.00154212      -4.48296770 F F F       0.20435208      -0.67228658      -0.20097484
Ge      17.27575232      28.81584630      34.67125375      -0.00007475       0.00137938       0.00133155      -4.46738632 F F F      -0.36780689       0.98634456      -0.00957370
Ge      18.75256564      30.27022921      36.07683692      -0.00195400      -0.00094035       0.00202811      -4.48075521 F F F      -0.27873893       0.32207422       0.66135148
Ge      17.36225930      31.95678107      37.56448039      -0.00286970       0.00123820       0.00206584      -4.48673560 F F F       0.11093188      -0.92249576      -0.09223723
Ge      18.73439427      33.42823271      39.05613571      -0.00154215       0.00122252      -0.00322687      -4.47992780 F F F       0.01527805      -0.37157565      -0.22188890
Ge      20.38340711      28.96544660      37.46656009      -0.00031838      -0.00055013       0.00113503      -4.46602929 F F F      -0.92169288      -0.43178698      -0.03416309
Ge      21.63203723      30.38983658      38.96050676      -0.00000891      -0.00101955      -0.00148349      -4.47603170 F F F       0.58571575       0.85624225       0.07768410
Ge      20.16210030      31.71471891      34.70862816      -0.00102944      -0.00400409      -0.00124070      -4.46640827 F F F      -0.01624356       0.64097817      -0.06785696
Ge      21.60212595      33.32393459      36.01373716      -0.00061819       0.00064325      -0.00189052      -4.49921060 F F F       0.18322490      -0.52438005       0.18079289
Ge      17.27331763      28.73007948      40.41311675       0.00057415      -0.00047588      -0.00084859      -4.47485833 F F F      -0.18998014       0.07569434      -0.12335409
Ge      18.69713448      30.24325201      41.74042936       0.00379756       0.00042621       0.00225015      -4.48429639 F F F      -0.09790396       0.79326358       0.29672827
Ge      17.32372610      31.71445993      43.35353552      -0.00441739       0.00040480      -0.00080378      -4.47855056 F F F       0.16590966      -0.64083085      -0.18082889
Ge      18.72059521      33.22445779      44.72241053       0.00051171      -0.00189295       0.00221667      -4.49354090 F F F      -0.14773390       0.20078574       0.37353566
Ge      20.17444380      28.82744631      43.08948122       0.00203478       0.00418640       0.00477248      -4.48944423 F F F       0.26967211      -0.03965581       0.32659995
Ge      21.55593520      30.19005455      44.67762434      -0.00095983       0.00049745       0.00270522      -4.47731626 F F F      -0.18987427       0.55479215      -0.10129392
Ge      20.11758028      31.86175632      40.40572988       0.00082253      -0.00124350       0.00130516      -4.48824810 F F F       0.66454658      -0.18589703       0.27143543
Ge      21.76474723      33.20447818      41.98057188      -0.00145467      -0.00179119       0.00302106      -4.48189051 F F F      -0.46929832       0.02877346      -0.73220736
Ge      17.29523066      34.68309809       0.08452580       0.00056730       0.00084761       0.00327137      -4.50007191 F F F      -0.19115672      -0.24319669      -0.75596962
Ge      18.77626770      36.08951601       1.44091732      -0.00259241       0.00249448      -0.00217778      -4.48215301 F F F       0.68953632      -0.36128107       0.21620393
Ge      17.47291963      37.51041843       2.91700356       0.00553666      -0.00018921      -0.00004027      -4.47840208 F F F      -0.39802493       0.40664430      -0.25071806
Ge      18.76381657      38.94162443       4.45197664       0.00073753       0.00072056      -0.00195839      -4.45109151 F F F      -0.11615063       0.59976868      -0.42378697
Ge      20.19968709      34.62423803       2.94887877      -0.00140293       0.00035691       0.00015069      -4.49455251 F F F      -0.25179865       0.00401086       0.13029823
Ge      21.87184553      36.07919996       4.23713649       0.00221042       0.00014795       0.00290741      -4.49734632 F F F      -0.54582592       0.31114596      -0.35255281
Ge      20.29300224      37.46746782       0.02703193       0.00222784      -0.00118429       0.00202691      -4.49948257 F F F      -0.50807512       0.62229523       0.23668855
Ge      21.60082890      39.04342585       1.50206822      -0.00240778       0.00116433       0.00238541      -4.48540421 F F F      -0.11785426      -0.33524191      -0.04624223
Ge      17.35802082      34.69259187       5.87918551       0.00168828      -0.00140557      -0.00012707      -4.47455739 F F F      -0.09874619      -0.26478601       0.17049422
Ge      18.82012523      36.23190544       7.16647432       0.00294812      -0.00034115      -0.00081733      -4.46422228 F F F       0.89985310      -0.66082198      -0.20322393
Ge      17.31410056      37.42222676       8.62905372       0.00188946      -0.00177603      -0.00120314      -4.43721884 F F F       0.21178170       0.31281868       0.84049221
Ge      18.73849690      38.89355115      10.14438787       0.00340461      -0.00171090       0.00198148      -4.49408731 F F F      -0.02881081       0.39308963      -0.51681891
Ge      20.15558647      34.67540371       8.69476675      -0.00194797      -0.00070374       0.00245191      -4.49964399 F F F      -0.00718160       0.08377638      -0.01988478
Ge      21.59184282      36.09501205      10.21819671       0.00196249      -0.00192316       0.00204390      -4.50447977 F F F      -0.08319350       0.50263040      -0.56700223
Ge      20.41203427      37.62607615       5.63106721       0.00173444      -0.00487042      -0.00429235      -4.44908755 F F F      -0.01849390      -0.74363412       0.91803150
Ge      21.69463961      39.02653254       7.26941087      -0.00053898      -0.00224416       0.00161519      -4.50592745 F F F      -0.33387016       0.35898729      -0.00191621
Ge      17.35603418      34.59073586      11.53300968      -0.00043846       0.00160557      -0.00066377      -4.46549445 F F F      -0.42714355      -0.71928096       0.49059411
Ge      18.74564927      35.96461433      13.07564705       0.00135858       0.00126577       0.00013418      -4.49976516 F F F      -0.03213361       0.24406543       0.36521033
Ge      17.40322183      37.48973556      14.66752971      -0.00216712       0.00058130      -0.00185762      -4.46032606 F F F      -0.60641958      -0.65076819      -1.18436349
Ge      18.78774743      38.99173791      15.94886259       0.00164855      -0.00149981       0.00035348      -4.46197714 F F F       0.59025962       0.13714994       0.09365839
Ge      20.14298057      34.37143140      14.45801748      -0.00181395      -0.00092808       0.00044383      -4.43938581 F F F       0.20020009       1.29183690      -0.19126672
Ge      21.58964145      36.02101257      15.73552984      -0.00083950      -0.00200142      -0.00085804      -4.51288251 F F F       0.21710373       0.21598017       0.00156533
Ge      20.11391108      37.55525134      11.70251679      -0.00107842      -0.00031344      -0.00157463      -4.48253193 F F F       0.22613318      -0.56404603      -0.48879857
Ge      21.54336623      39.07176778      12.98972168      -0.00024511      -0.00104321      -0.00121149      -4.46942124 F F F       0.43232891      -0.13722847       0.20554266
Ge      17.34371368      34.50863572      17.37486680      -0.00486518       0.00001050      -0.00090044      -4.48095947 F F F      -0.60407523       0.23394250      -0.46830842
Ge      18.72359473      36.05125000      18.66382588       0.00027381      -0.00006486      -0.00177636      -4.49239236 F F F       0.31590990       0.38326955       0.57817687
Ge      17.18675160      37.43486154      20.21245916       0.00181251       0.00295678      -0.00060477      -4.49311022 F F F       0.51851768      -0.23976304      -0.09040672
Ge      18.76813125      38.93239117      21.46496573       0.00247015      -0.00065278      -0.00157387      -4.48134739 F F F      -0.45234026       0.10845243       0.23959462
Ge      20.27996258      34.67994095      20.12259793      -0.00057080      -0.00025746       0.00003333      -4.50935504 F F F      -0.37898191      -0.55030581      -0.32965716
Ge      21.64027998      36.07581439      21.62563329      -0.00085097      -0.00105512      -0.00133748      -4.42783709 F F F       0.29573266      -0.64967414       0.05629390
Ge      20.27871849      37.49557226      17.26819268       0.00056648      -0.00203581      -0.00082258      -4.50176213 F F F      -0.49462435      -0.25962739      -0.01061438
Ge      21.68963145      38.77323094      18.82243438       0.00049144       0.00175590      -0.00232935      -4.47107669 F F F       0.12607501       0.94916786      -0.44982842
Ge      17.37966140      34.56712440      23.24002266       0.00171491      -0.00153117      -0.00341887      -4.47058203 F F F      -0.44938443      -0.20275360      -1.02612248
Ge      18.86769549      36.07855624      24.47086758      -0.00111255       0.00169632       0.00234394      -4.49514780 F F F      -0.17047859       0.58051785       0.25919023
Ge      17.34412280      37.49921753      25.94689499       0.00139147      -0.00162321      -0.00201580      -4.49647988 F F F       0.05334777       0.29921622      -0.62465360
Ge      18.68703211      38.95379147      27.46286382       0.00056965      -0.00302841       0.00165611      -4.49815322 F F F       0.46235998       0.04129656       0.13366761
Ge      20.26257795      34.75947757      26.02393111      -0.00115867      -0.00247132       0.00051699      -4.48366288 F F F       0.05420643      -0.64828859      -0.47923483
Ge      21.81868596      36.08865309      27.35889758       0.00238206      -0.00101183       0.00029614      -4.47119827 F F F      -0.18162617       0.61295320       0.66089389
Ge      20.20949418      37.54593879      22.89357750       0.00075500      -0.00067472      -0.00037614      -4.47465829 F F F      -0.35471263       0.13196452       0.93810571
Ge      21.47894849      39.00716190      24.51879307       0.00155364       0.00155157      -0.00090647      -4.47922424 F F F       0.60313030      -0.24098122       0.00264239
Ge      17.36886110      34.74381281      28.86744415       0.00134680       0.00239482      -0.00134101      -4.43319563 F F F       0.41110190      -1.01310005       0.65527024
Ge      18.84380635      35.99744342      30.39947545       0.00018748       0.00109753       0.00273456      -4.49256324 F F F      -0.18775859       0.62303401       0.07490338
Ge      17.39707131      37.61323378      31.76053891       0.00038309      -0.00243786      -0.00036331      -4.51031990 F F F       0.12634963      -0.39851452      -0.25630182
Ge      18.80959276      39.10889752      33.11426875      -0.00066798      -0.00077176       0.00041994      -4.50532261 F F F      -0.12478612      -0.00055997       0.33753077
Ge      20.18918231      34.66955828      32.00330732       0.00251335       0.00267718       0.00180040      -4.49245770 F F F       0.11574438       0.00090746      -0.23695120
Ge      21.63694475      36.32368222      33.24970193      -0.00048355      -0.00049472      -0.00069238      -4.47750121 F F F       0.11479018      -0.39547346      -0.13896089
Ge      20.23697215      37.45044511      28.90577385      -0.00163202      -0.00027235      -0.00289231      -4.49314593 F F F       0.31757271       0.35470514      -0.28262044
Ge      21.68823734      39.01964732      30.35292924       0.00407583      -0.00034968       0.00024399      -4.50233548 F F F      -0.19140760       0.07795648      -0.18697452
Ge      17.23399880      34.85764647      34.75760163       0.00087375       0.00127755       0.00097276      -4.44868679 F F F       0.65386706      -0.33907340      -0.34095239
Ge      18.77565802      36.25976309      36.07901984      -0.00029668       0.00301833      -0.00103810      -4.49989870 F F F       0.06490006      -0.36636506       0.61780709
Ge      17.32585913      37.59420183      37.60042722      -0.00415802       0.00079708       0.00235886      -4.48675658 F F F      -0.01773187       0.42306459       0.41566056
Ge      18.84077402      39.03523085      39.22609780       0.00332661       0.00111790       0.00488343      -4.43735529 F F F      -0.23310636      -0.64470359      -1.27383782
Ge      20.25153190      34.72994265      37.53727174      -0.00068068       0.00096034       0.00144020      -4.47977794 F F F      -0.60874968       0.20206687      -0.19841733
Ge      21.60661141      36.12881059      39.00701217      -0.00368750       0.00163044       0.00200361      -4.48552625 F F F       0.63438261       0.45962948       0.27023001
Ge      20.18349276      37.72427268      34.68789156       0.00029650       0.00054205       0.00189357      -4.49003455 F F F      -0.01048460      -0.06619385      -0.29299946
Ge      21.58341152      39.05561887      36.19837641      -0.00177002      -0.00348456      -0.00183288      -4.48405398 F F F       0.42111543       0.40768757      -0.40210994
Ge      17.19689320      34.64897226      40.59352759       0.00047344       0.00447240      -0.00379940      -4.49059375 F F F      -0.09768691      -0.01099074      -0.38934578
Ge      18.73619604      35.99803491      41.95754982       0.00060158       0.00073343      -0.00041228      -4.46581393 F F F      -0.57163171       0.94360400       0.15933385
Ge      17.27981302      37.54905864      43.47403614      -0.00210935      -0.00153683       0.00298601      -4.49794754 F F F      -0.05731961      -0.71726113      -0.34689871
Ge      18.72704103      38.93248406      44.87372732      -0.00336112      -0.00109185       0.00216783      -4.48582334 F F F       0.57944251       0.39369883      -0.35807891
Ge      20.20600450      34.67961176      43.34010170       0.00030574       0.00143894      -0.00020892      -4.46095895 F F F       0.27297103      -0.84659933      -0.05433602
Ge      21.63570999      36.06274694      44.73853577       0.00044627      -0.00266803      -0.00030254      -4.47722756 F F F       0.47171272       0.21733735      -0.19560830
Ge      20.19339358      37.52276543      40.62474327       0.00132860       0.00552256      -0.00089344      -4.50363444 F F F       0.50259767      -0.13465893      -0.37879624
Ge      21.78833069      38.95663589      41.96887226      -0.00090825      -0.00064828      -0.00251922      -4.46499610 F F F      -1.01051265       0.32644175      -0.47228724
Ge      17.29496860      40.47588073      46.18253888      -0.00102963       0.00233867       0.00120104      -4.49288165 F F F       0.10462112      -0.00669672       0.45275905
Ge      18.70841598      41.83937532       1.63652492       0.00097260      -0.00044270      -0.00032074      -4.50007237 F F F      -0.07912078      -0.10268244      -0.59760043
Ge      17.19011278      43.28442298       2.95709159       0.00021474      -0.00187834       0.00027812      -4.46622591 F F F       0.07251703       0.67146423      -0.72065540
Ge      18.70736801      44.57384099       4.39317685       0.00067000       0.00218400       0.00076292      -4.47553872 F F F       0.51369223       0.97846510      -0.00748839
Ge      20.18221331      40.43978331       3.05882918       0.00184585      -0.00020033      -0.00161440      -4.50279431 F F F      -0.05104014      -0.30832495      -0.49496310
Ge      21.73503331      41.84473610       4.32189471      -0.00017329      -0.00265162      -0.00094956      -4.47433920 F F F      -0.16375197       0.39914331       0.13710449
Ge      20.18673274      43.16138185       0.08522915       0.00142054       0.00125220      -0.00255190      -4.50518061 F F F       0.05877322       0.26225318       0.20805189
Ge      21.62676605      44.77148661       1.36557091      -0.00042984       0.00446169      -0.00086784      -4.47546883 F F F      -0.16553837      -0.60285811       0.95962147
Ge      17.21172449      40.46031670       5.73147868       0.00298047       0.00273704      -0.00020046      -4.45272127 F F F      -0.40405685      -0.98398986      -0.24631933
Ge      18.67581248      41.73904027       7.08398064      -0.00455559       0.00014143      -0.00191825      -4.41415520 F F F       0.56036969       1.26410120       0.45694517
Ge      17.30010534      43.21760007       8.59733461       0.00566716       0.00159959       0.00074602      -4.50201243 F F F      -0.29261728      -0.39316983       0.42941350
Ge      18.70474609      44.70058519      10.08492540      -0.00444203      -0.00078736       0.00094062      -4.42231180 F F F       0.26998400      -0.52852533      -0.42976652
Ge      20.09067806      40.53346504       8.63237723      -0.00013426       0.00144032       0.00018809      -4.47894554 F F F       0.38136218      -1.29692663       0.29380825
Ge      21.52206692      41.94316980      10.07430943       0.00180119      -0.00151010      -0.00145214      -4.47846012 F F F       0.72270072      -0.10973115       0.16126968
Ge      20.28381070      43.26216089       5.79106643       0.00326570      -0.00094144      -0.00149534      -4.48995358 F F F      -0.26789783      -0.31398220       0.02383827
Ge      21.70613016      44.62059264       7.31918557      -0.00168748      -0.00172975       0.00312836      -4.51378196 F F F       0.23319836       0.52725990      -0.17097816
Ge      17.31961513      40.32872646      11.59148075       0.00265468      -0.00112062      -0.00220798      -4.47957536 F F F       0.20022717       0.52653572       0.08976073
Ge      18.78864960      41.86946613      13.16032186      -0.00497860      -0.00040075      -0.00085920      -4.46180662 F F F      -0.53185781       0.08870192      -1.22454001
Ge      17.32536812      43.22213547      14.58727044      -0.00325123       0.00053283       0.00082727      -4.48481245 F F F      -0.33270628       0.02672578       0.08944379
Ge      18.74409038      44.76771957      15.94624311      -0.00122764       0.00050095       0.00120354      -4.50839222 F F F       0.43517125      -0.15964400       0.06096570
Ge      20.21516611      40.48785140      14.49228725      -0.00051444      -0.00141419       0.00008481      -4.47731439 F F F       0.30076493      -0.32880927       0.77735297
Ge      21.68299818      41.87349599      16.02937019      -0.00561311       0.00305295      -0.00272127      -4.51228658 F F F      -0.08231145       0.02742974      -0.27581350
Ge      20.11249147      43.33624594      11.55196407      -0.00251805       0.00015071      -0.00073689      -4.50628439 F F F       0.27643131       0.00705205       0.65231833
Ge      21.63772298      44.81783055      12.99633619       0.00080175       0.00085034       0.00166065      -4.48448365 F F F      -0.03914989      -0.52317406      -0.37271239
Ge      17.34930341      40.28586883      17.45187878       0.00283471       0.00093764      -0.00073098      -4.46391891 F F F      -0.96875784       0.05909132       0.23088407
Ge      18.72269751      41.88587994      18.73165727       0.00229873      -0.00139015       0.00110574      -4.46251308 F F F       0.32400640      -0.08923888       0.84706034
Ge      17.30298059      43.33600709      20.28723500       0.00288196      -0.00010612       0.00276214      -4.51394001 F F F      -0.16576785      -0.08723975      -0.27174947
Ge      18.76575406      44.90267195      21.62534817      -0.00053257      -0.00009709       0.00214423      -4.48032562 F F F      -0.76729170      -0.06693628       0.04126451
Ge      20.27579354      40.38061859      20.17487168      -0.00143708      -0.00253128       0.00202873      -4.48401455 F F F      -0.06244688       0.40587782      -0.19122085
Ge      21.60943210      41.79454216      21.84963385      -0.00094357      -0.00044701      -0.00140733      -4.47669004 F F F      -0.31854744       0.56669960      -0.79250107
Ge      20.22947023      43.37061581      17.44760952      -0.00012316      -0.00062130       0.00067016      -4.47996808 F F F      -0.01968751      -0.00343617      -0.50516758
Ge      21.78494359      44.83903014      18.72665085      -0.00036212      -0.00141882       0.00310768      -4.47812364 F F F      -0.51344016      -0.15824898       0.98186782
Ge      17.39554443      40.42020958      22.97782974       0.00092672      -0.00148220      -0.00016929      -4.48280849 F F F      -0.23288381      -0.55930183       0.60980460
Ge      18.70917317      41.93189599      24.50439600      -0.00145196      -0.00068021      -0.00252249      -4.49236944 F F F      -0.09892338      -0.10755117      -0.09432247
Ge      17.28055286      43.32922340      25.96694883       0.00078926      -0.00065967      -0.00195581      -4.49613852 F F F      -0.15879934       0.01929952       0.37783486
Ge      18.65841233      44.82385859      27.49581593       0.00185097       0.00020490      -0.00210826      -4.48388888 F F F      -0.04837391       0.25494371      -0.88776960
Ge      20.10444081      40.48870833      25.97257316      -0.00291033       0.00129508      -0.00085273      -4.49686760 F F F      -0.05169048      -0.24699054       0.20919415
Ge      21.58219571      41.95876825      27.33892617       0.00449718      -0.00008876      -0.00113861      -4.49355987 F F F      -0.24955745       0.02571373       0.61779444
Ge      20.06672881      43.44670140      23.07528269      -0.00192568      -0.00032553      -0.00055896      -4.47452293 F F F       0.58659579      -0.68388878       0.18271401
Ge      21.52113109      44.79824369      24.55355290      -0.00007387       0.00295093      -0.00006228      -4.46361009 F F F       0.58030519      -0.12323080      -0.29464446
Ge      17.24910990      40.40478982      28.94206765      -0.00046708      -0.00204000      -0.00070760      -4.48812966 F F F      -0.06928212       0.47017765      -1.02570652
Ge      18.71423641      41.90527492      30.25893157      -0.00262939       0.00147352      -0.00139951      -4.46585661 F F F      -0.43776692      -0.11144488       0.79860022
Ge      17.36876106      43.38123846      31.84416439       0.00248615      -0.00111882      -0.00160433      -4.46769566 F F F      -0.92438065      -0.49981626      -0.65635566
Ge      18.68123638      44.96689528      33.10252653      -0.00030036      -0.00040317      -0.00146577      -4.46360709 F F F       0.81435625       0.13742968       0.30445968
Ge      20.23746186      40.57352580      31.70364655      -0.00266813      -0.00135301      -0.00058606      -4.49674084 F F F      -0.06614283      -0.42507946      -0.16168153
Ge      21.60764643      41.91361629      33.23445102       0.00023730       0.00035518      -0.00038014      -4.47943572 F F F      -0.09322578       0.45611958       0.40129731
Ge      19.99816077      43.38554491      28.89022636      -0.00137629      -0.00150978      -0.00039902      -4.44352787 F F F       1.35400293      -0.14500402      -0.54063376
Ge      21.59876143      44.72820245      30.28298216      -0.00044740       0.00101152       0.00077328      -4.50579639 F F F      -0.11440548       0.15782393       0.03671777
Ge      17.22575074      40.37858939      34.58575290       0.00090120       0.00139049      -0.00335607      -4.47537528 F F F      -0.15373862       0.47531216      -0.12648132
Ge      18.61828474      41.90619396      35.94605035       0.00053839       0.00086179      -0.00306077      -4.47652308 F F F       0.54310297       0.32347059       0.66897136
Ge      17.21535572      43.28046652      37.60083666      -0.00065277      -0.00279952       0.00167681      -4.45690815 F F F       0.55294360       0.25670718      -1.07798889
Ge      18.69775973      44.72222974      38.95326332       0.00136779       0.00047151       0.00106652      -4.46458708 F F F       0.61351688      -0.12482893      -0.22619830
Ge      20.09020913      40.47466009      37.56051173      -0.00032285       0.00077431      -0.00264413      -4.48680086 F F F      -0.18801417       0.20289486      -0.11518424
Ge      21.66029058      41.86126109      38.89217922      -0.00099101       0.00204988      -0.00062462      -4.48682322 F F F      -0.32381071       0.10046120       0.45223099
Ge      20.14554264      43.53918921      34.61199573       0.00114080       0.00131126       0.00117362      -4.49524111 F F F      -0.16649529      -0.47913222       0.14096910
Ge      21.54024885      44.94805775      36.19410759      -0.00078624       0.00002505       0.00194258      -4.51555823 F F F       0.39293214      -0.42371980      -0.49451163
Ge      17.29206524      40.34700398      40.49541006      -0.00247296      -0.00291617       0.00197197      -4.46551912 F F F      -0.22751556       0.25608097       0.41004711
Ge      18.75330517      41.78503147      41.86939374       0.00165962      -0.00190323       0.00110430      -4.46647822 F F F      -0.17749709       0.90969585      -0.37568446
Ge      17.47583418      43.42511481      43.27927357      -0.00164282       0.00063947      -0.00220631      -4.49543012 F F F      -0.67730882      -0.59684680      -0.16723230
Ge      18.85588518      44.68461857      44.82019970      -0.00249680       0.00021428      -0.00259062      -4.48107606 F F F       0.19980247       0.19351334       0.00012149
Ge      20.12237393      40.38271628      43.23165524      -0.00180220       0.00105594      -0.00215167      -4.46627314 F F F       0.74619724      -0.67030544       1.18941587
Ge      21.60274353      41.74538033      44.80941222       0.00214347      -0.00061280       0.00030790      -4.48805224 F F F      -0.23402252       0.34117856      -0.89931591
Ge      20.17859123      43.25591616      40.37054817       0.00038890      -0.00060439      -0.00076346      -4.53352163 F F F       0.05232266       0.14779561       0.02864268
Ge      21.56484118      44.84386446      41.76147087       0.00216180      -0.00057812       0.00082994      -4.44348378 F F F       0.15188679      -1.12137938       0.58098863
Ge      23.14150470      46.08877892       0.00787359      -0.00121889       0.00123305       0.00157108      -4.44611355 F F F       1.08657975       0.07469999       0.07703383
Ge      24.67949232       1.45355245       1.35234708      -0.00011055      -0.00222304       0.00188744      -4.44785832 F F F      -0.78804535      -1.23625970       0.79338095
Ge      23.06153234       2.82836648       2.73230205      -0.00223479       0.00384137      -0.00294286      -4.48035779 F F F       0.35654684      -0.63180109       0.57546439
Ge      24.39025024       4.36148514       4.13606859       0.00040064      -0.00071365       0.00195157      -4.48544769 F F F       0.71545087      -0.50161576       0.53341792
Ge      26.12467016      46.02999662       2.77043786      -0.00237963       0.00056503       0.00090400      -4.45042951 F F F      -0.66968773       1.11515027       0.46498455
Ge      27.36767982       1.48096387       4.26486102       0.00080381       0.00158656      -0.00149460      -4.47012459 F F F       1.04407030      -0.44144181      -0.60411334
Ge      26.09727538       2.76120652      46.17074085       0.00012938       0.00043764      -0.00055511      -4.44755764 F F F       1.00261383       0.73583503      -0.98595181
Ge      27.49937747       4.27659188       1.44845891      -0.00078240       0.00033410       0.00177250      -4.50811747 F F F      -0.17938813       0.18599702      -0.35719984
Ge      23.13770278       0.02538989       5.82071139      -0.00136565       0.00007183       0.00056519      -4.46956741 F F F      -0.65104447      -0.47154949       0.22877733
Ge      24.58826887       1.39788143       7.21789785      -0.00089292      -0.00073833      -0.00271575      -4.49856454 F F F       0.03572935       0.80492828       0.10515477
Ge      23.10009574       2.93518093       8.64366104      -0.00244445       0.00441882      -0.00056155      -4.41621253 F F F      -0.11153375      -1.38147885      -0.69947574
Ge      24.46324933       4.25334167       9.99918909       0.00273751       0.00052378       0.00130131      -4.44745607 F F F       0.92452154       1.18773452       0.79619107
Ge      26.10812938       0.10892255       8.69606868       0.00101608       0.00219765       0.00264962      -4.51256310 F F F      -0.03153734      -0.26925320      -0.26478159
Ge      27.60824140       1.58386234      10.08015019       0.00117459      -0.00162084      -0.00006729      -4.47867831 F F F      -0.86835620       0.08962318      -0.27984189
Ge      25.92210329       2.87560880       5.63005857       0.00155261       0.00124006       0.00196946      -4.47520344 F F F      -0.81804788       0.25608911       0.10102137
Ge      27.21613075       4.34317063       7.12412605      -0.00018488      -0.00231770       0.00191915      -4.45397160 F F F       1.42548337      -0.07624802      -0.46292436
Ge      23.15205681       0.02379246      11.58069383      -0.00116669       0.00047600      -0.00051376      -4.50992596 F F F      -0.27964283       0.58736906       0.04518298
Ge      24.55118224       1.56510225      13.01599484       0.00169304       0.00055615       0.00003462      -4.50734139 F F F      -0.05106859      -0.33860179      -0.32802684
Ge      23.10029184       2.98587583      14.47235099       0.00272128       0.00285529       0.00070475      -4.49588271 F F F       0.05127828       0.07967003      -0.27366224
Ge      24.68353237       4.36097942      15.82845239      -0.00031780       0.00329033      -0.00188322      -4.50237692 F F F       0.12184197      -0.21003385       0.15436799
Ge      25.99847207       0.03190045      14.32913873      -0.00240493      -0.00063597       0.00008678      -4.48983979 F F F      -0.14619360       0.00899806      -0.08620648
Ge      27.46274852       1.43361608      15.70324855       0.00171057      -0.00292810      -0.00250207      -4.48370323 F F F       0.52060847       0.35241769       0.12674702
Ge      26.00700815       2.90728396      11.48022830      -0.00312155      -0.00172288      -0.00040356      -4.50563880 F F F      -0.01995203       0.06859377       0.14955225
Ge      27.50921207       4.32922458      12.91786963      -0.00155150       0.00196285       0.00201324      -4.50301199 F F F      -0.38278731       0.35032926      -0.02965451
Ge      23.21388484       0.03666895      17.26068786      -0.00214507      -0.00086176       0.00278057      -4.48429794 F F F      -0.27965675       0.67556439       0.09600540
Ge      24.52211324       1.60614882      18.76722379       0.00034518      -0.00099775       0.00143667      -4.46787107 F F F      -0.02065394      -0.56364359      -0.26793785
Ge      23.08013535       2.92288460      20.30647332       0.00182658      -0.00121369      -0.00128586      -4.51318438 F F F      -0.30002129      -0.18440370       0.20193929
Ge      24.47760140       4.36720595      21.77235120       0.00247919       0.00078545       0.00027909      -4.46657753 F F F       0.50352766       0.19569026      -0.85830867
Ge      25.82567933       0.01603090      20.14966138      -0.00278737      -0.00071978      -0.00110770      -4.49176241 F F F       0.21304060      -0.04742886       0.12808969
Ge      27.37943814       1.47527692      21.44761535      -0.00002561      -0.00325496       0.00018859      -4.49476291 F F F       0.51324946      -0.31961297       0.50038019
Ge      26.11690477       2.79766672      17.26462268      -0.00029128       0.00063186       0.00136110      -4.49198889 F F F      -0.17975203       0.73183821       0.00676076
Ge      27.57360937       4.34805355      18.66199290      -0.00135226       0.00145698      -0.00153002      -4.49238680 F F F      -0.58072952       0.01840409       0.34863461
Ge      23.02031354       0.06345864      23.15250201      -0.00098447       0.00172099      -0.00010760      -4.50592699 F F F       0.56063852      -0.23045474       0.30478228
Ge      24.54341183       1.60506982      24.52835595      -0.00299461      -0.00019372       0.00059475      -4.49270134 F F F      -0.18144323      -0.64315623      -0.22917133
Ge      23.05651138       2.98709390      25.93326855       0.00004496       0.00232901       0.00155680      -4.49767889 F F F      -0.24043966      -0.24384214       0.55186288
Ge      24.58978114       4.37500333      27.33756493      -0.00017997       0.00049354      -0.00249399      -4.50569417 F F F      -0.22292404       0.20594637      -0.18454363
Ge      25.92430561       0.03837207      25.93038880      -0.00100641       0.00218891      -0.00060339      -4.50341535 F F F       0.09266280      -0.07457638      -0.11039398
Ge      27.43367424       1.33299876      27.42677087       0.00164962       0.00225681      -0.00012030      -4.48623247 F F F      -0.20617716       0.60164741      -0.14768893
Ge      26.03849534       2.88820128      23.00635251      -0.00233843      -0.00144760      -0.00069167      -4.48382875 F F F       0.11116747       0.25684819       0.50946088
Ge      27.47876980       4.29270354      24.62564469      -0.00084824       0.00018461       0.00008515      -4.49040578 F F F      -0.01234102       0.12781581      -0.84173210
Ge      23.03918511       0.06692798      28.89469129       0.00104248      -0.00092573       0.00287837      -4.46677761 F F F       0.20939823      -0.14457418       0.43131769
Ge      24.53083180       1.58657707      30.22991575      -0.00138721       0.00193669      -0.00001672      -4.48698294 F F F       0.48158014      -0.54888180      -0.58045624
Ge      23.12147902       2.98681719      31.55163836      -0.00025932       0.00198383       0.00137174      -4.45361277 F F F      -0.38225389       0.15453643       1.28450563
Ge      24.38841150       4.43106950      33.18913537       0.00119973       0.00159811      -0.00093271      -4.45901455 F F F       0.60699984      -0.51635181      -0.54522458
Ge      25.90863033       0.03783833      31.60210111       0.00146706      -0.00137493       0.00007334      -4.45003731 F F F       0.11205295       0.73516221       0.37061237
Ge      27.45303647       1.39013335      33.05209928       0.00078212       0.00031310      -0.00163532      -4.46497394 F F F      -0.00651577       0.49078480       0.70620963
Ge      26.02532916       2.94536750      28.71779678       0.00173983      -0.00091171       0.00052110      -4.50591641 F F F      -0.05998717      -0.40514824       0.47333597
Ge      27.32033111       4.35577624      30.33016793      -0.00332233       0.00142307       0.00191905      -4.49075271 F F F       0.28688540      -0.39816824       0.08572229
Ge      23.01674664       0.19149793      34.68396513       0.00050139      -0.00016024       0.00258632      -4.46335320 F F F      -0.20122921      -0.60389443      -0.41710245
Ge      24.48654120       1.54179874      36.02681461       0.00147544       0.00251958       0.00302248      -4.46627700 F F F       0.20348993       1.17033091       0.35678685
Ge      22.93178585       3.06158751      37.49626126      -0.00009046       0.00048739       0.00004318      -4.46277594 F F F       0.51049967      -1.11470049       0.20259036
Ge      24.45337769       4.39288190      38.95417398       0.00236486       0.00056519       0.00282779      -4.48626501 F F F       0.50994148       0.32335176      -0.48999092
Ge      25.87453242       0.10801773      37.48024419       0.00127186       0.00028075       0.00148013      -4.45943085 F F F       0.61328871       0.26178655       0.10831871
Ge      27.46364748       1.56590479      38.87103748      -0.00295269       0.00026767      -0.00061797      -4.49103934 F F F      -0.07373466      -0.69283169      -0.07480995
Ge      26.00216020       3.09345465      34.57797669       0.00095716      -0.00006170       0.00128657      -4.46105607 F F F      -0.39170477      -1.35399258      -0.58913421
Ge      27.36400794       4.53130651      35.97135556      -0.00232761       0.00101309      -0.00155680      -4.40134040 F F F       0.03964687      -0.06926266       0.62642209
Ge      23.05273090       0.03343557      40.45130117       0.00077779       0.00021139      -0.00100366      -4.47298977 F F F       0.50226513       0.31781196      -0.86278852
Ge      24.49248595       1.61926110      41.73903090       0.00170104       0.00014835       0.00102104      -4.49453473 F F F       0.14170710      -0.64011994       0.72072296
Ge      23.07557644       2.90805404      43.41558607       0.00094607       0.00077584       0.00272637      -4.44333388 F F F       0.46809654      -0.18246137      -0.84826121
Ge      24.69746125       4.23434880      44.65985496       0.00020037       0.00041537      -0.00084444      -4.47628464 F F F       0.24087071       0.30006985       0.19024976
Ge      25.97643099       0.07523001      43.23573006       0.00016833      -0.00101306       0.00227557      -4.47362998 F F F      -0.24743025       0.21084053       0.11267494
Ge      27.68133164       1.47608554      44.57841900       0.00021557      -0.00117332       0.00231615      -4.46889854 F F F      -1.24971098      -0.07668508       0.27323911
Ge      25.97886789       2.92218019      40.24378472       0.00028107       0.00048451       0.00015486      -4.46802298 F F F      -0.18263842       0.25965253       0.33236810
Ge      27.42312314       4.37612164      41.67210983       0.00018022      -0.00116987       0.00100646      -4.51791257 F F F       0.08259800       0.07809052       0.26399065
Ge      23.23844664       5.58011659      46.13378531      -0.00102888      -0.00141268       0.00142386      -4.49709300 F F F      -0.52805794       0.64248797      -0.46063878
Ge      24.55647819       7.13559822       1.33774401      -0.00004810       0.00037998       0.00188461      -4.49107493 F F F      -0.29615257       0.62693962       0.11308522
Ge      23.11480761       8.75135323       2.75852326       0.00062150       0.00114549       0.00091168      -4.49708150 F F F       0.15012027      -0.68903594       0.14324039
Ge      24.59160195      10.16084308       4.21947159       0.00105139      -0.00034126       0.00222778      -4.48858105 F F F       0.33903950      -0.06421273      -0.61168322
Ge      25.93597115       5.75772111       2.80147639       0.00039032      -0.00022350       0.00217044      -4.47990193 F F F       0.78980955      -0.18074428       0.14942812
Ge      27.54757055       7.18365890       4.17334256      -0.00125410      -0.00343401       0.00335816      -4.48749045 F F F      -0.88578913       0.29951748      -0.05325672
Ge      26.02822399       8.58596648      46.11862549       0.00224098      -0.00259989       0.00108049      -4.46205889 F F F      -0.39479895      -0.33450224      -0.31396991
Ge      27.46935521       9.97185275       1.27142921       0.00064211       0.00345581       0.00210956      -4.47654054 F F F       0.23104235       0.50627245       0.64922574
Ge      23.03606035       5.70388600       5.67718852      -0.00115535       0.00056314       0.00060395      -4.48090216 F F F       0.13750441       0.56970422       0.15790939
Ge      24.46312226       7.24818930       7.07558416      -0.00000057      -0.00135308      -0.00106315      -4.45491427 F F F       0.70330236      -0.92269068      -0.68295303
Ge      23.23137046       8.65164155       8.52006191       0.00109014      -0.00097830      -0.00315110      -4.45541253 F F F      -1.01084259       0.74140776       0.47884620
Ge      24.74791381      10.10054585       9.87178649      -0.00288735       0.00312012       0.00139517      -4.45904704 F F F      -0.89092987       0.04449821       0.50612740
Ge      25.87810227       5.74954343       8.51465180       0.00026285      -0.00408324      -0.00052683      -4.48428298 F F F      -0.55537788       0.51606912       0.66745657
Ge      27.27517661       7.24219234       9.98013332       0.00086315       0.00096540      -0.00149532      -4.49184134 F F F       0.84556615      -0.22360282      -0.74278580
Ge      25.98887526       8.60952778       5.61443994      -0.00295990       0.00054790      -0.00274518      -4.51164565 F F F       0.43336777       0.30763464       0.08673417
Ge      27.53959013      10.11136665       7.06027658      -0.00277253      -0.00115877       0.00299524      -4.46723421 F F F      -0.43910308      -0.12471782      -0.74413352
Ge      22.99483322       5.81338391      11.34937063       0.00227425       0.00142403       0.00286795      -4.48085972 F F F       0.07950824      -0.72681048       0.38975498
Ge      24.41055508       7.12192549      12.84682954       0.00251947       0.00429217      -0.00309368      -4.47640549 F F F       1.00116733       0.57169774       0.03994142
Ge      23.00516735       8.58814020      14.27607204      -0.00251471      -0.00134498      -0.00155003      -4.44164485 F F F       0.79963558       0.69071887      -0.02184831
Ge      24.53930269      10.10136237      15.75815310       0.00158216      -0.00042992      -0.00077121      -4.48838116 F F F      -0.38563773      -0.28465699      -0.35686100
Ge      26.06922662       5.86190423      14.34654291       0.00130353       0.00241700      -0.00274856      -4.49124523 F F F      -0.54277590      -0.53159343      -0.44390367
Ge      27.39718051       7.26696398      15.82841990      -0.00129257       0.00151624      -0.00221221      -4.48572582 F F F       0.29386748      -0.05095086       0.59602002
Ge      25.98948783       8.69417290      11.43220636      -0.00117916       0.00461401       0.00281023      -4.46506750 F F F      -0.38537059      -0.37077090       0.87084580
Ge      27.50131221      10.02314772      12.95236438       0.00150759       0.00215542       0.00371238      -4.51122279 F F F      -0.10421916       0.02797546      -0.32675388
Ge      23.17642245       5.64605136      17.32210249       0.00024800      -0.00023665       0.00106343      -4.49650907 F F F      -0.18485828       0.60381028      -0.41657629
Ge      24.50702096       7.20394790      18.72666068       0.00232671       0.00010680      -0.00039749      -4.49392087 F F F       0.11139388       0.20360273       0.02012796
Ge      22.90125691       8.60238586      20.09907971      -0.00234479      -0.00392369      -0.00083119      -4.51122364 F F F       0.14524120       0.17765306       0.12291553
Ge      24.42117758      10.01527773      21.53316199      -0.00029566       0.00083656      -0.00008729      -4.48330220 F F F      -0.27540725       0.04800987       0.08609309
Ge      26.01740895       5.78590204      20.15383646      -0.00274658       0.00071130       0.00105536      -4.47632934 F F F      -0.19405999      -0.35872333       0.28436111
Ge      27.38484745       7.17448026      21.75108718       0.00070629      -0.00145483       0.00063415      -4.48828756 F F F       0.03947359      -0.03103185      -0.53508711
Ge      25.91751249       8.73608841      17.25296452      -0.00052347       0.00006772       0.00141827      -4.50555594 F F F       0.18321202      -0.44115936       0.32411750
Ge      27.38975691      10.14676837      18.73539588       0.00062593       0.00085363      -0.00212650      -4.49617883 F F F      -0.40681197      -0.36994302       0.38085395
Ge      22.95991775       5.72023218      23.15973713       0.00055390      -0.00204379       0.00060689      -4.49423490 F F F      -0.06077488       0.12427011      -0.07430911
Ge      24.51019551       7.10389735      24.51842144      -0.00163417      -0.00022750      -0.00013271      -4.50431389 F F F      -0.06140467       0.59857137      -0.08028329
Ge      23.06270066       8.64510241      25.88512284       0.00150645       0.00270647      -0.00220026      -4.49155120 F F F       0.52864772      -0.31803765       0.15651225
Ge      24.55406556      10.06117035      27.29964947      -0.00236155       0.00438939       0.00217747      -4.47995955 F F F      -0.62736271       0.53590181       0.45106558
Ge      26.07496389       5.81630978      25.94286248      -0.00001107      -0.00234683      -0.00051593      -4.49015579 F F F      -0.31145901       0.03387125       0.31164690
Ge      27.46566974       7.22337539      27.48778444       0.00233970       0.00040721      -0.00261585      -4.49390452 F F F      -0.34203870       0.37547339      -0.56049598
Ge      25.83548268       8.64674347      23.02402793       0.00057433       0.00030101       0.00204045      -4.50575757 F F F       0.20638139      -0.16708846       0.26232665
Ge      27.35808408      10.11686832      24.40261156      -0.00283116      -0.00253635       0.00080824      -4.49196983 F F F      -0.20599331      -0.19368206       0.31652594
Ge      23.15112692       5.74294535      28.84815439      -0.00041878       0.00025071      -0.00043481      -4.45795278 F F F       0.15298359       0.94973677      -1.06567986
Ge      24.47165985       7.33341209      30.20303453       0.00096963      -0.00032484       0.00079757      -4.49920783 F F F       0.60116904      -0.26165418       0.08194528
Ge      23.02312781       8.81222114      31.52663312       0.00060354      -0.00067044      -0.00306325      -4.45133671 F F F      -0.08838470      -0.38838614       0.34574459
Ge      24.67411413       9.96903475      32.94131742       0.00097285       0.00192864      -0.00046248      -4.47495202 F F F      -0.06145300       0.85127548       0.74594802
Ge      25.83782088       5.78922142      31.71314007      -0.00097018      -0.00052455       0.00105688      -4.49278991 F F F       0.42722805       0.84131133       0.16495020
Ge      27.50039209       7.27882608      33.13525002       0.00080599      -0.00134043       0.00134460      -4.49218897 F F F      -0.28494947      -0.58718403      -0.27270283
Ge      26.04237695       8.81312853      28.83510084      -0.00008880       0.00463406      -0.00029630      -4.46789679 F F F      -0.65245251      -1.10235342      -0.44029713
Ge      27.49379265      10.13313815      30.19494112       0.00156428      -0.00227970      -0.00467367      -4.40865908 F F F       0.63728209      -0.08881404       0.28283540
Ge      23.08957028       5.88442240      34.59301838       0.00106566      -0.00215688      -0.00081967      -4.47068877 F F F      -0.93158814      -0.08046164       0.38160897
Ge      24.62991738       7.20723929      35.99131069       0.00023332      -0.00383543      -0.00140193      -4.45735722 F F F      -0.08271828      -0.17918214       0.75213556
Ge      23.13606758       8.58677445      37.40446713       0.00126507      -0.00051929      -0.00100969      -4.49429556 F F F      -0.75073145       0.43571264      -0.05519357
Ge      24.37525401      10.12499696      38.92348186      -0.00236519       0.00021913       0.00102942      -4.47990352 F F F       0.78161380      -0.22199150      -0.30273445
Ge      26.08026652       5.89485121      37.58901269      -0.00010884       0.00144529       0.00206980      -4.48843301 F F F      -0.79210044      -0.16744868      -0.18123999
Ge      27.53296266       7.34185811      38.97439726       0.00133602      -0.00071792       0.00088824      -4.49154009 F F F      -0.17916776       0.20566143       0.15452321
Ge      26.06692905       8.60214162      34.63508934       0.00106345       0.00055436      -0.00016818      -4.41966251 F F F      -0.31869756       0.27961781      -1.21876171
Ge      27.43922556      10.13716518      35.86773852       0.00124215      -0.00060607      -0.00032285      -4.44364798 F F F       0.61564127       0.39373109       1.13773474
Ge      23.08442694       5.80554241      40.42356771       0.00018298       0.00241767      -0.00188790      -4.47159944 F F F      -0.41132839      -0.23088257       0.31321293
Ge      24.45329742       7.42793329      41.69110385       0.00368735       0.00424171      -0.00288046      -4.46940638 F F F       0.70290374      -0.35440385       0.42208171
Ge      23.04956276       8.69622101      43.31354252      -0.00042441      -0.00312391       0.00057556      -4.49293057 F F F       0.12318398       0.13600099      -0.43207370
Ge      24.67656984      10.04175966      44.66652299       0.00041654      -0.00099118       0.00010103      -4.49702177 F F F      -0.78755338       0.20305226       0.30437934
Ge      25.92728631       5.80749032      43.09513987       0.00285029       0.00109269      -0.00055825      -4.49890867 F F F      -0.18480886       0.11521742      -0.05431718
Ge      27.35853372       7.24047300      44.54043463      -0.00268946       0.00060126      -0.00262883      -4.48993668 F F F       0.36374136      -0.19544894      -0.01615048
Ge      26.07968697       8.89645704      40.36150667       0.00175941      -0.00028446      -0.00073878      -4.47660970 F F F      -0.69949258      -0.60760951      -0.37479790
Ge      27.51324315      10.26179567      41.79086859      -0.00056228      -0.00321269      -0.00283746      -4.48560966 F F F      -0.25467227       0.33155831       0.11798999
Ge      23.16638368      11.42635972      46.17687303      -0.00012296      -0.00034951      -0.00122756      -4.50412246 F F F      -0.01794252       0.37874040      -0.32804831
Ge      24.55381035      12.99645249       1.42520698      -0.00017940      -0.00209407      -0.00219405      -4.46937723 F F F      -0.30595076      -0.00854639      -0.45878697
Ge      23.11611030      14.43001213       2.83551875       0.00217369      -0.00236546       0.00050405      -4.51149507 F F F      -0.35039790       0.08990193       0.43443560
Ge      24.58950280      15.88036869       4.29722253       0.00025568       0.00173669       0.00068996      -4.48903950 F F F       0.38871381      -0.44840650      -0.41529186
Ge      26.10514394      11.59014358       2.65777217       0.00274330      -0.00138833      -0.00164387      -4.48231711 F F F      -0.05847237      -0.46994678       0.92547320
Ge      27.41988384      13.07210715       4.23996710      -0.00387484       0.00290064       0.00187037      -4.49692819 F F F      -0.14471630      -0.49606152       0.33774229
Ge      25.91848078      14.51341229      46.16646183       0.00244917       0.00222508       0.00214334      -4.50360603 F F F       0.06038143      -0.67142267      -0.52542272
Ge      27.46322387      15.89573053       1.25862186      -0.00105963      -0.00146571      -0.00051784      -4.41344028 F F F       0.11368874      -0.43497177       0.80198288
Ge      23.07346777      11.50587577       5.61998188      -0.00160814       0.00100280       0.00151029      -4.45159740 F F F      -0.96835100      -0.19172038       0.00984048
Ge      24.48424318      12.87467172       6.97827052       0.00046804      -0.00051932      -0.00267777      -4.42904802 F F F       0.47120853       0.49979086       1.57409803
Ge      23.15008469      14.41727231       8.63306786      -0.00047734       0.00102018       0.00016984      -4.49018034 F F F      -0.30393342      -0.31377601      -0.53180823
Ge      24.48998052      15.87292527      10.11850074      -0.00317775       0.00067336      -0.00131392      -4.48092653 F F F       0.34123422       0.27068756      -0.39819591
Ge      26.12202042      11.51167758       8.48672481      -0.00281060       0.00407335      -0.00204306      -4.47695143 F F F      -0.14355133       0.95511188      -0.22843889
Ge      27.44182335      13.04786897      10.05344410       0.00098114       0.00080759      -0.00093136      -4.50823606 F F F       0.02940778      -0.23718825      -0.29870411
Ge      25.96846206      14.41910123       5.80943088       0.00093714      -0.00050194      -0.00185449      -4.49463240 F F F       0.33265005       0.28014161      -0.54780873
Ge      27.47716967      15.93753823       7.18359351      -0.00013704       0.00114674       0.00026982      -4.48386667 F F F      -0.14043616      -0.42685396      -0.39532824
Ge      23.17950229      11.48306124      11.34140854      -0.00117437      -0.00098131      -0.00089443      -4.50254128 F F F       0.19010382      -0.21476279       0.43855505
Ge      24.57295775      12.91378178      12.94809454       0.00112020       0.00144640      -0.00090619      -4.51211757 F F F       0.21830346       0.22063795      -0.53101876
Ge      23.12091043      14.39223556      14.37579746      -0.00266049      -0.00250304       0.00028255      -4.41320590 F F F      -0.39315081      -1.47160808      -0.14860550
Ge      24.52382054      15.64099737      15.79434932      -0.00354278       0.00185670      -0.00010219      -4.43269357 F F F       0.69046764       1.38815682       0.41487455
Ge      26.09736359      11.46556774      14.36507349       0.00389209       0.00123522      -0.00090353      -4.49651783 F F F      -0.59862497       0.30377586      -0.08322138
Ge      27.50645686      12.90494555      15.79255196       0.00158300      -0.00004615      -0.00136737      -4.45495021 F F F      -0.75520687       0.10142481       0.48476973
Ge      26.02354943      14.52266401      11.49436490       0.00147033      -0.00223595      -0.00230194      -4.49243563 F F F      -0.20662424      -0.45549289       0.53379620
Ge      27.41590119      15.99674599      13.02042247      -0.00123279       0.00354721       0.00442392      -4.47224136 F F F      -0.11427649      -0.90393046      -0.17938659
Ge      23.10305616      11.44170218      17.29755719      -0.00573541      -0.00168804       0.00168740      -4.46792611 F F F      -0.26326903       0.01705337      -0.15075412
Ge      24.51219231      12.88024577      18.74156052       0.00050378       0.00050721       0.00210542      -4.50970995 F F F       0.09825627       0.30329555       0.33088971
Ge      23.10281506      14.48714048      20.11492697       0.00038336      -0.00054206       0.00219248      -4.49521019 F F F       0.20371827      -0.03422046      -0.03308532
Ge      24.43200279      15.86480338      21.74932240       0.00049879      -0.00004867      -0.00028592      -4.48475636 F F F       0.26179674      -0.10239170      -0.53743474
Ge      25.94582484      11.52426321      20.32340552       0.00106076      -0.00260619       0.00130053      -4.49521782 F F F       0.23192470       0.14838485      -0.54515647
Ge      27.39787714      13.04080129      21.74362783      -0.00059801       0.00242994      -0.00103217      -4.51501581 F F F      -0.00884270       0.25362208      -0.42464832
Ge      25.95525487      14.28690782      17.27046460      -0.00353752       0.00104228       0.00041661      -4.51656253 F F F       0.37771002      -0.08220929      -0.09728607
Ge      27.33824992      15.90023883      18.60933612       0.00168366      -0.00252286       0.00135042      -4.47948310 F F F       0.11041268      -0.34591501       0.43529637
Ge      23.04933885      11.52929905      22.99285723       0.00002718      -0.00099063       0.00072198      -4.52345541 F F F      -0.10237252      -0.06286044      -0.08047830
Ge      24.54222281      12.91988025      24.41598519       0.00200021      -0.00004972       0.00165187      -4.48829822 F F F       0.04948809      -0.30307465       0.54163373
Ge      23.20501412      14.35656071      25.93016744       0.00073592      -0.00292957      -0.00002085      -4.44617507 F F F      -0.70202656      -0.02840714       0.15533155
Ge      24.39332904      15.90755908      27.42150134       0.00122109       0.00074429      -0.00014808      -4.44843483 F F F       1.22393292       0.19275776      -0.68569991
Ge      25.98990434      11.49680314      25.93641756       0.00055147       0.00080812      -0.00063857      -4.50539235 F F F      -0.03107379       0.52625373      -0.22908908
Ge      27.42947256      13.01814906      27.37378321       0.00282447      -0.00142109      -0.00225368      -4.51198582 F F F      -0.29145712       0.00409864      -0.51322395
Ge      25.95539016      14.48213033      23.19963969       0.00066855      -0.00140365       0.00313189      -4.46374672 F F F      -0.09607939      -0.09530910      -0.81500106
Ge      27.34618018      15.94758494      24.54676531       0.00021914       0.00153846      -0.00162136      -4.48179304 F F F       0.40016374       0.52903730      -0.08257205
Ge      23.02046098      11.71082042      28.67998849       0.00147809      -0.00002239      -0.00222228      -4.48338302 F F F       0.06204431      -0.51755711      -0.00440440
Ge      24.57378302      13.05343159      30.13030630      -0.00185125       0.00222591       0.00045556      -4.48938766 F F F      -0.05744063      -0.01732010       0.61218009
Ge      23.19359241      14.62127590      31.66702706      -0.00024889      -0.00305824       0.00336134      -4.49748646 F F F       0.17410544      -0.86363076      -0.24740689
Ge      24.66256371      15.96550182      33.14087544       0.00040066      -0.00087972      -0.00102675      -4.46414719 F F F       0.37127576      -0.12740733      -0.56776686
Ge      26.13934872      11.54241352      31.55881763       0.00057621       0.00038051       0.00109400      -4.46672467 F F F      -1.02475640       0.73068013       0.73004123
Ge      27.47859972      13.07424935      33.08568884       0.00165089      -0.00078603       0.00101392      -4.49355025 F F F       0.30362296      -0.18825859      -0.11877741
Ge      25.99459130      14.53236682      28.73913747      -0.00296904      -0.00165294       0.00126286      -4.48193942 F F F      -0.16757431       0.01435851       0.01009718
Ge      27.31102430      16.11676779      30.13868137       0.00136403      -0.00121937       0.00175526      -4.48494660 F F F       0.02467497       0.15489493       0.19181501
Ge      23.14847761      11.48456230      34.47936481       0.00223770       0.00082508       0.00099667      -4.44806954 F F F       0.00582921      -0.50976402      -0.58496464
Ge      24.44496398      12.96227831      35.89040273      -0.00425642       0.00190850      -0.00441484      -4.47897196 F F F       0.59206635       0.36933057       0.44457668
Ge      23.07651625      14.46335163      37.36833894       0.00235667      -0.00136430      -0.00130961      -4.47467696 F F F       0.26804097      -0.20190034       0.10516512
Ge      24.46102483      15.89369907      38.84724251       0.00091484      -0.00109801      -0.00226940      -4.50804327 F F F       0.56407505       0.03914104       0.63282175
Ge      25.83143790      11.44820380      37.32995334       0.00064125       0.00045832      -0.00185705      -4.48725693 F F F       0.39523859       0.50748679       0.42100838
Ge      27.33696610      12.96453589      38.82991010      -0.00071004      -0.00024578      -0.00033085      -4.48979721 F F F       0.22435636       0.16387123      -0.10271205
Ge      26.01620065      14.44521018      34.56244068      -0.00358759      -0.00192647       0.00101575      -4.49605617 F F F      -0.28894131      -0.17284988      -0.17791116
Ge      27.37224150      15.97325878      35.94525129       0.00177511       0.00190344      -0.00195681      -4.47798674 F F F      -0.14693243       0.04004017       0.46217724
Ge      23.04039408      11.55546142      40.42413345      -0.00060822       0.00138083      -0.00019476      -4.45169710 F F F       0.16702508       0.13463717      -0.63499331
Ge      24.60219466      12.93433699      41.68058420      -0.00239380       0.00032186       0.00050060      -4.46081120 F F F      -0.38073310       0.38826434       0.92616831
Ge      23.17393452      14.44996073      43.16927738       0.00014395      -0.00054334       0.00206246      -4.49718161 F F F      -0.63899498      -0.45197181      -0.05290607
Ge      24.51555554      15.85290411      44.63303230      -0.00086934      -0.00056428       0.00014602      -4.46648857 F F F       0.08961177       0.72222702       0.41390288
Ge      25.96177837      11.64268729      43.30923958      -0.00217883      -0.00363284      -0.00221737      -4.42947733 F F F      -0.11594149      -0.82253251      -1.14978523
Ge      27.33077502      12.98176847      44.66831504       0.00290404      -0.00110008      -0.00160493      -4.45493351 F F F       0.80303272       1.11458390       0.57712972
Ge      25.97292634      14.45792332      40.39931132      -0.00019943      -0.00168062      -0.00000836      -4.47163596 F F F       0.11414948       0.38768070      -0.93978953
Ge      27.27413292      16.01347651      41.89869914      -0.00370128       0.00014893       0.00053887      -4.46808713 F F F       0.60824518      -0.69044662      -0.48176906
Ge      23.12301849      17.45803624      46.05692702       0.00546268       0.00177018       0.00056245      -4.49930251 F F F       0.08856570      -0.54888193       0.49027543
Ge      24.58167753      18.77455437       1.50514186      -0.00041168      -0.00090228       0.00048869      -4.49658735 F F F       0.11255489      -0.10030671      -0.46355999
Ge      23.12727343      20.26089419       2.86480649      -0.00142174      -0.00038873      -0.00146113      -4.50918528 F F F       0.02763450      -0.32579399       0.59872141
Ge      24.60776904      21.65605274       4.37406268       0.00120218       0.00166314       0.00051250      -4.48578156 F F F      -0.17580266      -0.06530029      -0.75634244
Ge      26.15289263      17.23312848       2.81532765       0.00159839      -0.00046001       0.00069949      -4.50489801 F F F      -0.79563231       0.80816471       0.37975472
Ge      27.52050368      18.81791142       4.24608286      -0.00125477      -0.00167838      -0.00307262      -4.48725229 F F F       0.25402664      -0.85386602      -0.12049424
Ge      25.90313230      20.35998091       0.03935716       0.00264562       0.00103137       0.00213714      -4.50239565 F F F       0.28089630      -1.00714343      -0.28396053
Ge      27.46325898      21.68188166       1.39551176      -0.00139504       0.00062618      -0.00245552      -4.42671522 F F F      -0.01370517      -0.61126268       0.20873594
Ge      23.23639545      17.23021163       5.79467065       0.00050956      -0.00011488       0.00229955      -4.45520038 F F F      -0.77567243       0.82980390      -0.46350904
Ge      24.60308170      18.77243352       7.13552301       0.00299259       0.00054038       0.00232859      -4.49518087 F F F       0.25461596       0.01034711      -0.00980704
Ge      23.00916022      20.20180849       8.38308029      -0.00189943       0.00130139      -0.00055155      -4.48163360 F F F       0.34317151      -0.10691744       1.05444415
Ge      24.45688068      21.52678674      10.07431381      -0.00025151      -0.00119453       0.00178952      -4.47927193 F F F       0.07381965       0.06785091      -1.05368976
Ge      26.03174373      17.33418448       8.60153398      -0.00116924      -0.00063938       0.00039392      -4.50473283 F F F      -0.50326434       0.09483418       0.52712948
Ge      27.46938859      18.77345056      10.04486009      -0.00057216       0.00061486       0.00018966      -4.51830093 F F F       0.08175343      -0.17408944       0.05195327
Ge      26.08728557      20.20703864       5.68173828      -0.00185795      -0.00200894      -0.00091621      -4.48874250 F F F      -0.14264014      -0.11330435       0.55065411
Ge      27.40671793      21.66057838       7.24128399       0.00053633      -0.00259992       0.00002048      -4.50424320 F F F      -0.37417916       0.71139223      -0.48372176
Ge      22.91997330      17.19205152      11.56709070      -0.00042205       0.00386251      -0.00479274      -4.48015071 F F F       0.60882701       0.55538145      -0.22946912
Ge      24.46926996      18.76793461      12.83389465      -0.00240369       0.00172607      -0.00274042      -4.50378000 F F F       0.34275073      -0.28564004       0.29523507
Ge      23.11117774      20.25088041      14.30301659      -0.00014124      -0.00320471      -0.00120155      -4.48326973 F F F      -0.31136641      -0.49115864       0.03862655
Ge      24.41700160      21.58695371      15.90898609       0.00114041      -0.00195163       0.00055983      -4.48298105 F F F       0.91087566      -0.01747265      -0.51332837
Ge      25.94877201      17.37286058      14.43215248      -0.00223110      -0.00656461       0.00163696      -4.48345983 F F F      -0.59874191      -0.19146783      -0.04127589
Ge      27.50332097      18.78143103      15.76115104       0.00191840      -0.00045576      -0.00130679      -4.47733305 F F F      -0.50648076      -0.01483285       0.90957169
Ge      26.01267825      20.21044032      11.45192212      -0.00221439       0.00069462       0.00110162      -4.49253356 F F F      -0.08985706      -0.13573035       0.31438486
Ge      27.36157776      21.74894788      12.95059946       0.00155818      -0.00132052      -0.00244139      -4.50756655 F F F      -0.03409359      -0.44542646       0.05924971
Ge      23.04264483      17.20908092      17.09657131      -0.00028762      -0.00008876       0.00192300      -4.49584026 F F F       0.37449656      -0.15734784       0.60800424
Ge      24.46711862      18.70798406      18.52275149       0.00129430      -0.00052053       0.00314567      -4.45949194 F F F      -0.24268073      -0.68304833       0.96132470
Ge      23.12763913      20.15368147      20.10620136      -0.00048334      -0.00414934      -0.00522717      -4.50364824 F F F       0.30370021       0.41203706       0.12521021
Ge      24.58117006      21.70672563      21.65516058      -0.00328960       0.00072404       0.00227728      -4.44572338 F F F      -0.87243702       0.23482456      -0.96802030
Ge      25.82197090      17.18424904      20.09979649      -0.00213336      -0.00084209      -0.00119899      -4.46703570 F F F       0.12719801       0.87969077       0.31364495
Ge      27.28004360      18.80044638      21.60319078      -0.00051875      -0.00401130       0.00390916      -4.49664341 F F F      -0.15321875      -0.09339099      -0.73319216
Ge      25.94211902      20.16122705      17.32311972       0.00125003       0.00224246      -0.00107021      -4.47710348 F F F       0.63815057       0.37919149      -0.80573475
Ge      27.28107710      21.73005312      18.76972709       0.00000074       0.00041206      -0.00120309      -4.49629040 F F F       0.02807872      -0.11741162      -0.12279355
Ge      22.90228748      17.30171577      23.06116636      -0.00225767       0.00360792      -0.00082769      -4.48448872 F F F       0.57547746       0.24037464       0.37217457
Ge      24.46155119      18.83784984      24.45047194      -0.00178939       0.00195694       0.00047081      -4.48028686 F F F      -0.92249628      -0.21252796       0.48406006
Ge      23.05142646      20.34396753      26.03327439       0.00062108       0.00020946      -0.00053623      -4.46778041 F F F       0.48646971      -0.25147195      -0.15708008
Ge      24.72426437      21.76594199      27.49527607      -0.00218060      -0.00131085       0.00106315      -4.48589866 F F F      -1.04913733       0.06884822      -0.53350799
Ge      25.91483174      17.45548360      25.90643943       0.00029308       0.00371606       0.00007754      -4.49346380 F F F      -0.04257417      -0.17000300       0.71948120
Ge      27.49001663      18.98185704      27.31332957      -0.00118045       0.00051022       0.00070267      -4.44932016 F F F      -0.62607438      -1.34008405       0.45110838
Ge      25.83273709      20.23681777      23.03828628       0.00058632       0.00036077       0.00105374      -4.39027460 F F F       0.69295291      -0.20426341       0.05770480
Ge      27.14273646      21.84023790      24.38865280      -0.00268608      -0.00194842      -0.00170054      -4.43458542 F F F       0.93369540      -0.89162475       0.93175126
Ge      23.09377281      17.32333866      28.87796315      -0.00200256       0.00068706      -0.00096078      -4.46099425 F F F      -0.41597820       0.90289545      -0.20253690
Ge      24.44002635      18.96164497      30.26269352       0.00104119      -0.00034797      -0.00231602      -4.45886102 F F F       0.86479705      -0.79727699      -0.55088053
Ge      23.10720682      20.28037672      31.71586075       0.00230448      -0.00076139       0.00060568      -4.41870168 F F F      -0.95936771       0.81906303      -0.44783778
Ge      24.52617887      21.62778113      33.17993493      -0.00119459       0.00076096      -0.00193084      -4.44963133 F F F       0.64644801       0.66119530      -0.57742585
Ge      25.96975750      17.59546862      31.70191354       0.00027100      -0.00092319      -0.00022249      -4.51868735 F F F       0.25016140      -0.24583365       0.21818808
Ge      27.49077451      18.98934178      33.26409158       0.00039646      -0.00031921       0.00158912      -4.48996543 F F F      -0.81986510      -0.21983599      -0.45684308
Ge      26.07494921      20.28697235      28.86267034       0.00127958      -0.00203616      -0.00002904      -4.47883199 F F F      -0.11777383      -0.05978057       0.24389106
Ge      27.41838726      21.85271984      30.27113017      -0.00108383       0.00284134       0.00113958      -4.44385589 F F F       0.21034601      -0.23755543      -0.39661521
Ge      23.23075643      17.31864667      34.50322649      -0.00190412      -0.00190492      -0.00088729      -4.48570437 F F F      -0.86447023       0.41913193       0.40471392
Ge      24.59579821      18.72353521      36.01876982      -0.00213432       0.00287393      -0.00061476      -4.48668296 F F F       0.54814377      -0.07543204       0.05991273
Ge      23.13906063      20.09566267      37.37549671      -0.00073176      -0.00099007      -0.00142928      -4.50077458 F F F      -0.54304480       0.44497218       0.57473665
Ge      24.53935336      21.63209796      38.79750211      -0.00017215      -0.00124933       0.00167143      -4.47431589 F F F      -0.22777007      -0.45043576       0.87148299
Ge      26.06605998      17.37195728      37.59806663      -0.00235632       0.00003321       0.00208117      -4.50223733 F F F      -0.38017580      -0.18880066      -0.54701828
Ge      27.54433082      18.77789977      39.02044345       0.00118658      -0.00050869      -0.00045657      -4.45822820 F F F      -0.73658049       0.27218450      -0.27875567
Ge      25.94790660      20.35909994      34.68920461       0.00136321      -0.00281618      -0.00178892      -4.49539035 F F F       0.45819465      -0.43971753       0.18120911
Ge      27.45304480      21.79993401      36.08950944      -0.00117473       0.00163439       0.00259744      -4.50420445 F F F      -0.55766149      -0.13677550       0.06631202
Ge      23.07778904      17.38386489      40.39704573      -0.00212864       0.00176228       0.00144667      -4.45754005 F F F       0.40243931      -0.21211498      -0.23758495
Ge      24.32663898      18.95223246      41.84010244      -0.00274593      -0.00348812       0.00088536      -4.46002197 F F F       0.98930366      -0.87635428       0.24828677
Ge      22.95613947      20.33567458      43.29985862       0.00055399       0.00318065       0.00243629      -4.45820237 F F F       0.52627664       0.17178732       0.29204029
Ge      24.47547593      21.76441731      44.76500285      -0.00317521       0.00262984       0.00109335      -4.41349008 F F F       0.49363480      -1.11386256      -0.72255543
Ge      25.91996464      17.43944610      43.30182657       0.00092253      -0.00166863       0.00122869      -4.47685561 F F F      -0.59692660       0.55477995       0.03868389
Ge      27.42223400      18.83746939      44.74768557      -0.00016361      -0.00068686       0.00114794      -4.50291828 F F F      -0.14940575       0.31106071       0.25501237
Ge      25.93949009      20.12989354      40.41166024      -0.00059031       0.00036551       0.00102437      -4.47424506 F F F       0.10400088       0.72928967      -0.58247823
Ge      27.46797557      21.53381954      41.83148592      -0.00069494      -0.00125886      -0.00033168      -4.51080534 F F F      -0.06591536       0.38614635       0.12924380
Ge      23.15550074      23.08683112      46.15993302      -0.00036077       0.00307299      -0.00088777      -4.43115676 F F F      -0.68032452       0.76251363       0.96278099
Ge      24.55892218      24.55035809       1.44955333      -0.00249827      -0.00387114       0.00137486      -4.51910479 F F F       0.07489425      -0.46430498       0.04935839
Ge      23.11205063      25.95825359       2.86838892       0.00106823      -0.00037692       0.00090959      -4.50747105 F F F       0.03640437       0.35571343      -0.42066678
Ge      24.55643980      27.39068657       4.26303391      -0.00144235       0.00226987       0.00420379      -4.44344900 F F F       0.16629319      -0.22059456      -0.36965712
Ge      26.03376462      22.99095379       2.81643795      -0.00013321       0.00203944       0.00431279      -4.50542604 F F F      -0.32543977       0.96762154       0.64958675
Ge      27.43001047      24.57830782       4.26923638      -0.00081955       0.00065103       0.00166496      -4.48607936 F F F      -0.59704685      -0.74258730       0.35973725
Ge      25.87941353      26.00375096      46.15763988       0.00153952      -0.00155857      -0.00188095      -4.46137448 F F F       0.63072465      -0.29611191      -0.32148559
Ge      27.50319926      27.35684713       1.24172466      -0.00145840       0.00124016      -0.00373813      -4.48258711 F F F      -0.28903197       0.15563763       0.83785965
Ge      23.13456432      23.19558992       5.59075469       0.00084396       0.00183430      -0.00129579      -4.50378797 F F F       0.16660834       0.10901109       0.77431760
Ge      24.58197925      24.61215594       7.15793440      -0.00150399      -0.00045765      -0.00252945      -4.48194191 F F F      -0.74473892      -0.09994456       0.08637401
Ge      23.13314564      26.05241282       8.69103544      -0.00016571      -0.00134451       0.00213893      -4.50396998 F F F       0.27107869      -0.41157225       0.01252824
Ge      24.55774745      27.40640488      10.31903451      -0.00156530      -0.00058571       0.00055720      -4.45248269 F F F      -0.04909991       0.00835267      -1.32784161
Ge      25.84694588      23.10098582       8.62812359      -0.00246447      -0.00114412       0.00027846      -4.49881250 F F F       0.59857871      -0.28363482       0.34708572
Ge      27.47426488      24.52302631      10.02551139      -0.00174365       0.00156084       0.00112422      -4.51778298 F F F      -0.19495083       0.01821274      -0.01243240
Ge      25.96620147      26.01713832       5.71780262       0.00183279      -0.00118463       0.00029695      -4.50355057 F F F       0.77714691      -0.04016331       0.18222144
Ge      27.48370922      27.40075160       7.25272319      -0.00066189       0.00051647      -0.00007723      -4.47389860 F F F      -0.73579171      -0.03285636      -0.53714257
Ge      23.05478754      22.95136917      11.45143119       0.00200274      -0.00083496      -0.00219949      -4.47722846 F F F       0.00506513       0.62190018       0.39504539
Ge      24.56379704      24.41891753      12.89063842       0.00054958       0.00200901       0.00052118      -4.49757624 F F F      -0.31704655       0.37026982      -0.29847257
Ge      23.19693717      25.91321017      14.36739845      -0.00126218      -0.00380085       0.00032510      -4.47778356 F F F       0.07522760       0.56990452      -0.14408189
Ge      24.50759319      27.49754336      15.88432979       0.00160424      -0.00089929      -0.00089140      -4.46618944 F F F      -0.32549484      -0.62804506      -0.10870340
Ge      25.88641030      23.09755503      14.43521320      -0.00163368      -0.00008646       0.00027027      -4.46314331 F F F      -0.25117821      -0.66725389       0.19710635
Ge      27.19577335      24.59281780      15.81913851       0.00098122      -0.00224216      -0.00014696      -4.48824526 F F F       1.13118010       0.00262241       0.16235600
Ge      26.07486028      25.95864640      11.56060928      -0.00018338       0.00220197       0.00278922      -4.47437193 F F F      -0.25192297      -0.73462168      -0.23164293
Ge      27.38809708      27.46479789      12.93109144      -0.00143500       0.00090218      -0.00175719      -4.43859732 F F F       0.20063663      -0.20166194       0.25097328
Ge      22.99310140      23.04002207      17.20732290       0.00095304      -0.00208953      -0.00324787      -4.48309855 F F F      -0.06838408       0.82652825       0.25201627
Ge      24.41064501      24.64451586      18.62435422       0.00058825       0.00026497       0.00140853      -4.48900831 F F F      -0.02112142      -0.94961496       0.60655277
Ge      23.05817731      25.99174229      20.20550324      -0.00141335       0.00019754      -0.00046685      -4.48586995 F F F       0.04204590       0.20974368      -0.24459234
Ge      24.51460049      27.46753866      21.59570299      -0.00178730       0.00303804      -0.00051742      -4.49776395 F F F      -0.09984053      -0.10019331       0.47698303
Ge      25.91134138      23.25675589      20.21463264      -0.00081061       0.00038751      -0.00322165      -4.50926700 F F F      -0.02888845       0.06011655      -0.43774064
Ge      27.45317369      24.71982737      21.56491482       0.00125841       0.00004285       0.00083391      -4.49309375 F F F       0.06833403      -0.24968685      -0.09096810
Ge      25.89053533      26.07030447      17.33427462      -0.00188984       0.00074584       0.00227944      -4.45077744 F F F       0.35019528      -0.11232025      -0.37196001
Ge      27.50675631      27.33937238      18.69213240       0.00106055       0.00007307      -0.00002674      -4.47558262 F F F       0.45863817       0.80469576       0.04126213
Ge      23.13622472      23.19606929      23.03005319      -0.10413221      -0.02724980       0.12238985      -4.49693069 F F F      -0.36653497      -0.12705988      -0.40732303
Ge      24.50500099      24.59037233      24.50807186       0.00218067      -0.00097907      -0.00045358      -4.48361453 F F F       0.33764404       0.27188476      -0.21867937
Ge      23.09538343      26.01965857      25.88890602      -0.00167715       0.00095017      -0.00105955      -4.46460483 F F F      -0.44106073      -0.55093381       0.63867035
Ge      24.54686320      27.36058576      27.30117820      -0.00029944      -0.00096594       0.00026703      -4.49188888 F F F      -0.00780943       0.64875359       0.50393837
Ge      25.99163953      23.29937696      25.98708581      -0.00160087      -0.00072482       0.00142237      -4.46432649 F F F      -0.30069558      -0.36496114       0.08880336
Ge      27.43907586      24.70602520      27.39109506       0.00173983       0.00123507       0.00267008      -4.46036540 F F F       0.83523095      -0.48568761      -0.30954762
Ge      25.99847348      26.03525217      23.07448524      -0.00202584      -0.00069273      -0.00115472      -4.50892590 F F F      -0.07181572       0.43378412       0.04560622
Ge      27.45776308      27.55453648      24.52666650       0.00183688      -0.00368592       0.00036769      -4.49510655 F F F      -0.47368328       0.09830139      -0.16606698
Ge      23.20901513      23.11384243      29.00362565       0.00015552       0.00075544      -0.00143350      -4.45123974 F F F      -0.32898318      -0.01615494      -0.97640172
Ge      24.55352071      24.63950233      30.32367711      -0.00121927       0.00055831       0.00043141      -4.47955449 F F F       0.63285171      -0.13567148       0.30311621
Ge      23.09063970      26.04418460      31.69960350       0.00001375      -0.00012735      -0.00059045      -4.47633769 F F F       0.02419302       0.79481609       0.56691995
Ge      24.54350386      27.69929767      33.24573321       0.00294168       0.00135828      -0.00064350      -4.46298361 F F F       0.04099882      -0.89617929      -1.10096084
Ge      26.09862081      23.19380308      31.76456198      -0.00055843      -0.00012954       0.00104949      -4.46926882 F F F      -1.38058844       0.17819770       0.29186238
Ge      27.29789717      24.72879375      33.25312075      -0.00404012      -0.00291087       0.00109583      -4.46972606 F F F       0.91373800      -0.00104979      -0.52858398
Ge      26.01701070      25.99681340      28.79116719       0.00049993       0.00010420      -0.00234786      -4.47336713 F F F      -0.40715077       0.86166300       0.79661831
Ge      27.50470663      27.54136159      30.24978566      -0.00040800       0.00246173       0.00074539      -4.51347954 F F F      -0.35979783      -0.62374210       0.16133041
Ge      23.10586058      23.04911437      34.53426149      -0.00127270      -0.00073024      -0.00021827      -4.49968185 F F F      -0.61346476       0.54344702       0.45800989
Ge      24.46659517      24.57154976      36.07104327       0.00042340      -0.00107902      -0.00012800      -4.45542808 F F F      -0.45674667       0.27765056      -0.71913221
Ge      23.07339210      26.13166940      37.38523842       0.00074601      -0.00077206      -0.00001400      -4.48285491 F F F       0.30901334      -0.31816111       0.67036604
Ge      24.58813442      27.44694685      38.97849454       0.00313288      -0.00142395       0.00044287      -4.50122260 F F F      -0.18799822      -0.15202828      -0.41988441
Ge      25.82663832      23.23582009      37.51923231       0.00140358       0.00202369       0.00109187      -4.42654834 F F F       1.66897526      -0.30438779       0.19056599
Ge      27.49405214      24.56404905      39.00417063      -0.00134221      -0.00011420      -0.00206168      -4.46388935 F F F      -0.21764781      -0.10895995      -1.09088602
Ge      25.84402214      26.12821023      34.67209381       0.00225503       0.00073519       0.00119148      -4.49995721 F F F       0.29527859       0.03363797       0.09161084
Ge      27.44982647      27.46755255      36.08612500      -0.00172769      -0.00193775      -0.00135269      -4.47801748 F F F      -0.23747935       0.28534379      -0.39656128
Ge      23.12482160      23.04997304      40.37402247       0.00244236       0.00180565      -0.00098065      -4.48815198 F F F       0.55322951       0.50571550       0.04874084
Ge      24.66598095      24.50851848      41.91115530       0.00029669      -0.00034578       0.00045067      -4.48592044 F F F      -0.56208712      -0.05842317      -0.76339886
Ge      23.08389293      25.93093030      43.25603825      -0.00148807      -0.00142603       0.00027739      -4.50397607 F F F      -0.24455734      -0.14898187       0.03399010
Ge      24.56584403      27.39877606      44.65236702      -0.00381453       0.00230720       0.00048546      -4.50361671 F F F      -0.50852057       0.52901292      -0.00187006
Ge      26.01488901      23.00470335      43.32794100      -0.00128133      -0.00144184       0.00413736      -4.48724930 F F F       0.57856331       0.38031718      -0.42430242
Ge      27.41609626      24.64270679      44.65997818      -0.00077445      -0.00045936      -0.00286952      -4.50411793 F F F      -0.53192045      -0.05433104      -0.01601662
Ge      26.04002781      25.94738571      40.32338603       0.00010030       0.00044459       0.00265905      -4.46773048 F F F      -0.06037993       0.48938496       1.23297115
Ge      27.55085348      27.45245107      41.89046686       0.00073420      -0.00071399      -0.00383861      -4.45668230 F F F      -0.52212209      -0.58337502      -0.98912518
Ge      23.13852932      28.98308712      46.09869618       0.00383976       0.00126442       0.00012918      -4.48847196 F F F       0.45616816      -0.60835659       0.32335569
Ge      24.70577993      30.33527820       1.38733175      -0.00265800       0.00155700      -0.00178442      -4.50053095 F F F      -0.62109405       0.12311543      -0.02392871
Ge      23.18845346      31.85694957       2.81784824       0.00261319      -0.00025918       0.00197374      -4.46370553 F F F      -0.51963770      -1.02426170      -0.11607333
Ge      24.63500082      33.27610428       4.15673893      -0.00035711       0.00111538      -0.00095922      -4.44175849 F F F      -0.17158401      -0.31024784       0.34036998
Ge      26.02222416      28.73297435       2.78626897       0.00002759       0.00283093      -0.00146895      -4.51717151 F F F       0.46372835       0.39538628      -0.00910086
Ge      27.44793277      30.18912706       4.34920990       0.00401712      -0.00134486       0.00230694      -4.45289119 F F F      -0.83025908       0.45551912      -1.09338315
Ge      26.05336819      31.75077383      46.01304374       0.00032832       0.00015472       0.00321061      -4.48258465 F F F      -0.08087717      -0.18225252       0.28812983
Ge      27.38556188      33.12704932       1.38697373       0.00300983       0.00486872      -0.00323815      -4.48887973 F F F       0.45408357       0.19574782       0.14670935
Ge      23.10434270      28.65907415       5.69592174       0.00074537       0.00328102       0.00098277      -4.47020864 F F F      -0.50997166       1.32601019       0.23962732
Ge      24.53121879      30.15562719       7.12628868      -0.00196019      -0.00056859      -0.00256539      -4.47680378 F F F      -0.19420583      -0.07638479      -0.18742984
Ge      23.18038197      31.67636283       8.54145059       0.00113696      -0.00121307      -0.00144385      -4.47077863 F F F      -0.91465335       0.36119662       0.60082374
Ge      24.40211351      33.21701699      10.20214105       0.00174487       0.00010191       0.00109862      -4.43437490 F F F       0.00255730      -0.23774282      -1.22517596
Ge      25.92139800      28.74335440       8.61090637       0.00165531      -0.00053692       0.00030015      -4.50160740 F F F       0.14836982       0.34449618       0.80741528
Ge      27.31412030      30.33461342      10.07227492      -0.00019725      -0.00065247       0.00014920      -4.51556078 F F F      -0.38345408      -0.15587058      -0.21721529
Ge      25.83053638      31.62271921       5.58452475       0.00073092      -0.00222159      -0.00216936      -4.48057837 F F F       0.59976174       0.20906031       0.38404374
Ge      27.20851973      33.03921641       7.16826763      -0.00596353       0.00008837      -0.00077348      -4.47759904 F F F       0.22749871       0.47250460       0.38146632
Ge      23.09032519      28.92031476      11.52455017      -0.00077910      -0.00266558      -0.00024550      -4.48698366 F F F      -0.24416262       0.32009846       0.90525095
Ge      24.53668255      30.38279791      13.07102263      -0.00277430      -0.00202859      -0.00013036      -4.51652563 F F F      -0.22350071      -0.20680417      -0.52848258
Ge      23.06236230      31.79815642      14.52058537       0.00049578       0.00093455       0.00168699      -4.49303750 F F F      -0.22690097      -0.50749367       0.01443535
Ge      24.48570918      33.30564724      15.86050979       0.00022961       0.00069689      -0.00312315      -4.48023076 F F F       0.66548311      -0.47463504      -0.05860447
Ge      25.92319962      28.76647897      14.39371766       0.00428919       0.00033799      -0.00352636      -4.46294976 F F F       0.23942324       1.06575186       0.12102257
Ge      27.28638933      30.40310278      15.80774163       0.00019346      -0.00275466       0.00351398      -4.48859958 F F F       0.63404787      -0.29354523       0.08955132
Ge      25.90404428      31.88273176      11.53340101      -0.00238709      -0.00039118       0.00645937      -4.46044270 F F F       0.08145557      -1.11639048       0.13674713
Ge      27.30828734      33.20476130      12.97521158       0.00017000       0.00333042      -0.00196197      -4.47990900 F F F       0.72918127       0.56982736       0.17213203
Ge      23.11075178      28.89419755      17.33812966      -0.00088137       0.00226531      -0.00062920      -4.50561581 F F F      -0.51290533       0.54702031      -0.18126193
Ge      24.54117332      30.32377962      18.83802407       0.00058415      -0.00048246      -0.00063226      -4.46038692 F F F       0.66906000      -0.68169367      -0.81403111
Ge      23.07007606      31.65528627      20.13203421       0.00111119      -0.00039371      -0.00054807      -4.37312961 F F F      -1.53036449       0.02494583      -0.29777059
Ge      24.37284317      33.07576015      21.44403077       0.00052900       0.00081685      -0.00161582      -4.37001501 F F F       0.72961208       0.44100592       1.93917880
Ge      26.03570093      28.76357749      20.11197982      -0.00285106      -0.00118501       0.00185679      -4.49868587 F F F       0.03743915       0.35833928       0.29327119
Ge      27.40407688      30.30510290      21.59578960      -0.00050449       0.00085275      -0.00016394      -4.49597126 F F F       0.07806771      -0.07291130      -0.06953512
Ge      25.94000940      31.82669502      17.38823461       0.00174814       0.00156245       0.00184524      -4.51800491 F F F      -0.08807919       0.07808031      -0.49507325
Ge      27.51512383      33.18961477      18.77592679       0.00157045       0.00058858       0.00084563      -4.46910637 F F F      -0.21118902      -0.06721436      -0.16014983
Ge      22.92237762      28.83451832      23.09240289       0.00051910       0.00208225      -0.00036367      -4.50646351 F F F       0.49211504       0.37433429      -0.28533209
Ge      24.36739424      30.35583257      24.49974742      -0.00243700      -0.00036633       0.00269903      -4.48321720 F F F      -0.30516059      -0.05307527       0.16265538
Ge      23.00570767      31.91680843      25.98948113      -0.00173615       0.00253705      -0.00002523      -4.49004656 F F F       0.83235813      -0.26240357      -0.00234702
Ge      24.64718694      33.32752669      27.46103077      -0.00230418       0.00267494       0.00070616      -4.48619414 F F F      -0.88823252      -0.09563089      -0.46366580
Ge      25.84235558      28.95739853      25.89474080      -0.00108852       0.00123149      -0.00138064      -4.49748467 F F F       0.74126205      -0.21069403       0.18073310
Ge      27.47494688      30.31799449      27.33540132       0.00283562      -0.00010596       0.00096495      -4.43870913 F F F      -1.38593501       0.57533359      -0.45942787
Ge      25.83388217      31.63712721      23.02909535       0.00302893      -0.00349096       0.00050328      -4.46744290 F F F       0.47155152       0.92087799      -0.23985085
Ge      27.42678208      33.22840440      24.43458152      -0.00352361      -0.00194558      -0.00400482      -4.49071983 F F F      -0.66673723      -0.51387670       0.51347984
Ge      23.02308893      28.84496431      28.71528025      -0.00114862       0.00124357       0.00116079      -4.52649173 F F F       0.21578562       0.04453534       0.01161072
Ge      24.51400258      30.30323946      30.11441821       0.00009957      -0.00168883       0.00186343      -4.48366014 F F F       0.34612113      -0.05358011      -0.03149348
Ge      23.19174497      31.73456959      31.57639540      -0.00029285      -0.00002496      -0.00025436      -4.46629850 F F F      -0.77155709       0.76592960       0.68247268
Ge      24.50464127      33.23230542      33.17439032       0.00098839      -0.00328308       0.00530750      -4.48565533 F F F      -0.31405650      -0.01997884      -0.30333818
Ge      26.03978985      29.01184416      31.64329859      -0.00139272      -0.00010819      -0.00221988      -4.46781328 F F F      -0.58952513      -0.65607717      -0.01948305
Ge      27.35578693      30.32855912      33.19067799      -0.00365082       0.00117087       0.00349709      -4.44765681 F F F       0.22204318       0.67522931       0.02198897
Ge      26.00944739      31.81616073      28.76953917      -0.00035811       0.00251548      -0.00156831      -4.49271266 F F F       0.48799587      -0.23713385       0.34106473
Ge      27.43586295      33.34978228      30.23708882      -0.00126336       0.00176486      -0.00327898      -4.48633089 F F F      -0.42683724      -0.53321982       0.58086421
Ge      23.16626771      29.09535373      34.65914874      -0.00250637      -0.00154385      -0.00253147      -4.44583729 F F F      -0.76265823       0.15679099      -0.50221907
Ge      24.56009098      30.37107347      36.16910593       0.00060319      -0.00136297       0.00191254      -4.46098860 F F F       0.80917237       0.13638994      -0.11867060
Ge      23.13915562      31.89397344      37.42200552       0.00069124       0.00008781      -0.00136132      -4.48231092 F F F      -0.47018607       0.14759567       0.87768943
Ge      24.68559067      33.28336718      38.89099024       0.00016129       0.00238941      -0.00239194      -4.48471340 F F F      -0.89758680      -0.17755197       0.46037381
Ge      26.09024642      28.86440243      37.58504910       0.00124814       0.00032390      -0.00171616      -4.50096832 F F F      -0.47819595       0.18542233      -0.30169027
Ge      27.62184659      30.23591244      38.91735204       0.00183463       0.00097949       0.00161936      -4.45050989 F F F      -0.78123031       0.66554069       0.52548903
Ge      25.92524971      31.81659660      34.58260453       0.00073326      -0.00124348      -0.00308974      -4.50622508 F F F       0.25430416      -0.18644616       0.70046515
Ge      27.44616096      33.20265656      36.09308455       0.00083532       0.00163654      -0.00284972      -4.49210321 F F F       0.44766262      -0.26283143      -0.56833902
Ge      23.06696923      28.84768396      40.34601158      -0.00079158       0.00108693      -0.00048454      -4.47923260 F F F      -0.35381123      -0.17609066      -0.14512962
Ge      24.47657737      30.17635361      41.79580640      -0.00240551       0.00264055      -0.00078078      -4.49515585 F F F       0.72517019       0.69765165       0.42538080
Ge      23.12392621      31.64158627      43.36340707       0.00115051       0.00347379      -0.00004869      -4.49594548 F F F      -0.02075562       0.13389098      -0.13401810
Ge      24.45644630      33.22489017      44.80875563       0.00006046       0.00179631      -0.00017972      -4.46779231 F F F      -0.23557567      -0.53783746      -0.14088698
Ge      26.08891442      28.81264404      43.22605247       0.00187269      -0.00204357      -0.00212392      -4.47119053 F F F      -0.86776680       0.16203201       0.17967263
Ge      27.51021949      30.22783768      44.63730397       0.00319364       0.00220103      -0.00136971      -4.50517626 F F F       0.11673208       0.54772589       0.01863733
Ge      25.95548828      31.67788329      40.33124612      -0.00050567      -0.00395487       0.00256503      -4.48252042 F F F       0.15172549      -0.41102866      -0.28620053
Ge      27.31952947      33.21236543      41.68343019       0.00033373      -0.00012508      -0.00189125      -4.45413530 F F F       0.09332760      -0.62897882       1.05093054
Ge      22.88282352      34.54551896       0.04209745      -0.00224514      -0.00200957       0.00155039      -4.48650750 F F F       0.55727123       0.18689207       0.11727723
Ge      24.55063174      36.04622649       1.25788662       0.00411551       0.00218163      -0.00011260      -4.50648536 F F F      -0.48506326       0.39530103      -0.08577019
Ge      23.24606760      37.65983910       2.74099328      -0.00193038      -0.00038197      -0.00254500      -4.43412562 F F F      -0.71647046      -1.17210086      -0.20870246
Ge      24.41674542      38.94809843       4.36383455      -0.00006483       0.00478999      -0.00063664      -4.42675813 F F F       1.02459280       0.63652036       0.32903468
Ge      25.97377799      34.71498143       2.71812949      -0.00006100       0.00142252       0.00156648      -4.43550682 F F F       0.27086393      -0.46063693       0.04751675
Ge      27.29388730      35.97348326       4.35226347      -0.00258495       0.00114895       0.00008823      -4.46193289 F F F       0.97378697       0.36536177       0.10550054
Ge      26.10000713      37.38937599      45.99799866      -0.00098868      -0.00263307      -0.00014124      -4.46155672 F F F      -0.61884379       0.89123330       0.73070406
Ge      27.27579636      38.96286936       1.48501375      -0.00033605      -0.00251668      -0.00003142      -4.47367066 F F F       0.19961869      -0.26422990      -0.39811222
Ge      23.24389420      34.61563200       5.66505369      -0.00057982      -0.00056108       0.00300184      -4.45693398 F F F      -0.89245358      -0.19515245       0.50361235
Ge      24.48655546      36.09982765       7.14076346       0.00219645      -0.00231067       0.00020631      -4.45662949 F F F       0.34174947       0.63937795      -0.01154947
Ge      23.11975985      37.53793337       8.65864300       0.00019021      -0.00047477       0.00163724      -4.49487172 F F F      -0.50008856      -0.23223284       0.38197526
Ge      24.44105395      39.07401151      10.12675550       0.00027395      -0.00065033       0.00121239      -4.48606448 F F F      -0.01829426      -0.08961710      -0.24938159
Ge      25.74116415      34.67315174       8.67075935       0.00043881      -0.00199424       0.00088196      -4.47543614 F F F       0.92218643      -0.62861306      -0.04169360
Ge      27.24902852      36.07186909      10.15033118       0.00318224       0.00223633       0.00227198      -4.45571846 F F F      -0.45876577      -0.54013661       0.66601587
Ge      26.01382150      37.58302648       5.73417406      -0.00175487      -0.00421479      -0.00071312      -4.49163465 F F F      -0.07935097      -0.01019274       0.67272888
Ge      27.52117296      38.94594376       7.43011015      -0.00114969      -0.00012941       0.00011449      -4.45041536 F F F      -0.38349706      -0.57719972      -1.02343402
Ge      23.07863356      34.69043948      11.56214725       0.00023535      -0.00037067       0.00036918      -4.43343850 F F F      -0.94262747      -0.47134611       0.47354845
Ge      24.54277248      36.10974705      12.86481622       0.00078980       0.00161794       0.00226338      -4.47959153 F F F      -0.00828030       0.58476187       0.93284711
Ge      23.03209952      37.58878111      14.32530635       0.00079152      -0.00294825       0.00378278      -4.51471428 F F F      -0.01779869      -0.62046875       0.05187249
Ge      24.46610290      38.90890512      15.87267926      -0.00038903      -0.00150248       0.00090483      -4.48270434 F F F       0.07375823       0.71762317      -0.05712439
Ge      25.96618979      34.72520576      14.41375586      -0.00087162       0.00041872       0.00001023      -4.51212939 F F F      -0.14310999      -0.26469345       0.01344826
Ge      27.48919472      36.01519063      15.91504322       0.00056062      -0.00221648       0.00101801      -4.45371977 F F F      -0.49974281      -0.03073272       0.55324168
Ge      25.89541893      37.71178550      11.56796751       0.00126263      -0.00186190      -0.00081339      -4.48197635 F F F       0.24167861      -0.59062222      -0.27333975
Ge      27.32350882      39.03329004      13.07878043       0.00172318       0.00053156      -0.00041660      -4.48032494 F F F       0.40306671      -0.68392791       0.07388750
Ge      23.18022602      34.79155159      17.22168116      -0.00224345       0.00110205       0.00278353      -4.44458542 F F F      -0.52819352      -0.07149033       0.35842996
Ge      24.74028425      36.00328475      18.73622332      -0.00074440       0.00073513       0.00048870      -4.48529881 F F F       0.27740656      -0.02014493       0.03916048
Ge      23.10344293      37.25825365      20.10481324       0.00093572      -0.00244983       0.00129955      -4.44252083 F F F       0.58585435       0.77980549       0.34145229
Ge      24.38048873      38.91459760      21.62515952       0.00285217      -0.00157417       0.00084055      -4.44935538 F F F       0.34934389      -0.82625917      -0.84795351
Ge      26.06226096      34.38231147      20.35906556      -0.00086858      -0.00306094       0.00165240      -4.43100304 F F F      -0.01793711       1.23768975      -0.99815355
Ge      27.40252518      36.04758283      21.68054429      -0.00112963      -0.00097444      -0.00325793      -4.47504336 F F F       0.18359557      -0.00252534      -0.72485113
Ge      26.07391156      37.63267846      17.23239698       0.00040094       0.00218203      -0.00057969      -4.47563944 F F F       0.10073913      -0.66011232       0.71446715
Ge      27.50072458      39.01207970      18.83663479      -0.00044055       0.00217147      -0.00017430      -4.48989702 F F F      -0.40436073       0.02551865      -0.33496591
Ge      23.14700195      34.65628789      23.03503765      -0.00243761      -0.00218790      -0.00021595      -4.51073275 F F F       0.37022295       0.28816937      -0.04719416
Ge      24.66702177      36.19079186      24.50173573       0.00292098       0.00014491       0.00535006      -4.47833537 F F F      -1.08522761      -0.31410461       0.23191764
Ge      23.15176144      37.69454407      25.95615767      -0.00243481      -0.00013201      -0.00059273      -4.50876810 F F F      -0.03526261      -0.30891675      -0.18182594
Ge      24.56760408      39.12803515      27.49922018       0.00101832      -0.00028107       0.00021174      -4.44884047 F F F      -0.45346326       0.75707670      -0.95038729
Ge      26.02934897      34.74418600      25.96413735       0.00106118       0.00116827       0.00064027      -4.46353317 F F F       0.04786611      -0.50975405      -0.51153542
Ge      27.38087985      36.13830821      27.42079208       0.00147207      -0.00135762       0.00276210      -4.48637830 F F F       0.50369098       0.90162279       0.54003231
Ge      25.93701545      37.51546681      22.93972886       0.00154507       0.00401426       0.00076569      -4.44668267 F F F       0.30375594       0.54484311       0.38820991
Ge      27.41703173      38.92321844      24.41921471       0.00005734       0.00036192       0.00006095      -4.49995071 F F F       0.25086659       0.35274118       0.71948196
Ge      23.19061897      34.73704061      28.96316701       0.00205224       0.00113839       0.00150184      -4.49059459 F F F      -0.08943285       0.18072130      -0.22820167
Ge      24.57273048      36.30705055      30.33485574      -0.00033271      -0.00116299       0.00365790      -4.47685520 F F F       0.42161624      -0.30589245       0.45693315
Ge      23.20627402      37.74961585      31.90272485      -0.00034270       0.00216087       0.00077528      -4.47820483 F F F      -0.38632523      -0.49294779      -0.53940403
Ge      24.58976875      39.07234522      33.43341954      -0.00165292       0.00103374      -0.00051670      -4.49466699 F F F       0.20782840       0.04125770      -0.18711621
Ge      26.02370361      34.66698153      31.85007187       0.00140532       0.00231370      -0.00018166      -4.45694155 F F F      -0.44738648       0.63338418      -0.89246214
Ge      27.35616016      36.25764402      33.18312304      -0.00004680       0.00289207       0.00057917      -4.49117849 F F F       0.49029351      -0.13569285       0.38685566
Ge      26.00591575      37.81994023      28.86429576      -0.00326421       0.00122361      -0.00116631      -4.44764548 F F F       0.74396010      -0.99144491       0.67412064
Ge      27.45116713      39.30660929      30.39320748      -0.00032302       0.00255090       0.00163122      -4.48656549 F F F       0.36561635      -0.61169378      -0.60608759
Ge      23.02639550      34.72140509      34.55796874       0.00219949       0.00154445      -0.00070624      -4.48664928 F F F       0.63633103       0.48851773       0.37237216
Ge      24.63644797      36.16054042      36.12538131      -0.00088158      -0.00375257      -0.00088330      -4.46296403 F F F      -0.87962580      -0.87384960       0.04332584
Ge      23.11305567      37.60667168      37.48883877      -0.00063473      -0.00533668      -0.00053139      -4.49368476 F F F      -0.28091567      -0.47947156       0.57987474
Ge      24.50571793      39.05442922      38.94233009      -0.00046926       0.00072491      -0.00330030      -4.47711327 F F F      -0.33756523      -0.01556186       0.01750946
Ge      26.13567595      34.67059291      37.49277216       0.00074834      -0.00102979       0.00143620      -4.45715890 F F F      -0.50800398       0.40936826       0.02529201
Ge      27.54934944      36.06492635      38.93439071      -0.00237850       0.00019316      -0.00072676      -4.48717579 F F F      -0.19631472       0.62263547      -0.18765578
Ge      26.06055568      37.62083539      34.87142393      -0.00166578       0.00013342       0.00065660      -4.45267391 F F F       0.20138594       0.22279961      -1.17493369
Ge      27.58833022      39.13266319      36.04098290      -0.00055373      -0.00428660       0.00215460      -4.46373377 F F F      -0.16695533      -0.23566064       0.40786085
Ge      23.17956255      34.75702953      40.47039496       0.00042441      -0.00071651       0.00020793      -4.47969825 F F F      -0.28013530      -0.63383610      -0.53217729
Ge      24.62622466      36.25018456      41.77806776       0.00013414       0.00261031       0.00040952      -4.45600798 F F F       0.34684089      -0.71225803       0.22531401
Ge      23.17616192      37.50248869      43.28836701       0.00134579      -0.00048068       0.00128638      -4.46792526 F F F       0.06734659      -0.05507304       0.70420369
Ge      24.59104482      38.97026649      44.73359346       0.00104555       0.00113461       0.00039438      -4.50659423 F F F       0.28500498      -0.20146071      -0.31755882
Ge      25.86642626      34.53551155      43.29625372       0.00080853       0.00223774       0.00241661      -4.47766509 F F F       0.46867608       0.81321485      -0.72099903
Ge      27.46929420      35.98613775      44.60018548      -0.00116171       0.00045429      -0.00243990      -4.46436773 F F F       0.35186191      -0.03760512      -0.41672514
Ge      26.03023324      37.63916669      40.23797950       0.00068320       0.00083061      -0.00192660      -4.49493449 F F F       0.33590483      -0.44214882       0.42847596
Ge      27.43305224      38.96193036      41.83781939      -0.00218379      -0.00012681      -0.00087833      -4.50217979 F F F       0.33753132      -0.43016179      -0.13381027
Ge      23.03172615      40.28660976      46.12192447      -0.00148998       0.00287967      -0.00341621      -4.43653272 F F F       0.76207428       0.68641973       0.66877850
Ge      24.57899837      41.91691394       1.36224639      -0.00101567       0.00228351       0.00001130      -4.47150999 F F F      -0.22539557      -0.59413152       0.20349923
Ge      23.14189937      43.31863322       2.90155047       0.00291978      -0.00050377       0.00010568      -4.49620072 F F F       0.13601530       0.59982402      -0.28523170
Ge      24.61357244      44.85871888       4.41977314      -0.00022619      -0.00052158      -0.00072644      -4.45952433 F F F      -0.10654816      -0.77067294      -1.06882886
Ge      25.91045065      40.42041837       2.97251246       0.00206583      -0.00206608      -0.00176647      -4.49617018 F F F       0.06533847       0.44183168      -0.11269057
Ge      27.54342985      41.85645288       4.40061440       0.00098504      -0.00234248       0.00114005      -4.46659101 F F F       0.00968263      -0.89870002      -0.55158712
Ge      26.12208610      43.26502783      46.10037781       0.00148029       0.00259459       0.00122636      -4.49927356 F F F      -0.43070279       0.20222223      -0.38816894
Ge      27.56863320      44.78287460       1.26663825       0.00207236       0.00087972      -0.00083986      -4.47004368 F F F       0.33737359      -0.82291005       0.22762123
Ge      23.12856212      40.49446632       5.81399621       0.00071995      -0.00353305       0.00195746      -4.47786600 F F F      -0.40303936      -0.60942673       0.00683203
Ge      24.57952427      41.92076801       7.11754250       0.00018782      -0.00210871       0.00106568      -4.46938435 F F F       1.20917008      -0.39926024       0.48374453
Ge      23.28553973      43.22836201       8.72499119      -0.00102943       0.00212536      -0.00272686      -4.43129133 F F F      -1.18443298       0.11186169      -0.27917626
Ge      24.51972524      44.86660692      10.02074600       0.00046572       0.00151200      -0.00071093      -4.44498427 F F F       0.53770188       0.20539802       0.22252690
Ge      26.02226534      40.34128558       8.68022724      -0.00074411      -0.00223805       0.00018400      -4.45971386 F F F      -0.47209286       1.31279895       0.34401090
Ge      27.49949897      41.87781224      10.21295106      -0.00089639      -0.00020045      -0.00225388      -4.47247760 F F F      -0.64298576      -0.61537999      -0.50020410
Ge      26.09753380      43.31374519       5.64542714       0.00260238       0.00097427       0.00116031      -4.45233308 F F F      -0.62049541       0.36382727       0.76709876
Ge      27.42411283      44.76876194       7.15997057      -0.00178510      -0.00166913      -0.00074351      -4.49726808 F F F      -0.06589882      -0.13531098       0.29070677
Ge      22.98133844      40.49842761      11.56910188       0.00104762       0.00077909      -0.00054202      -4.50958507 F F F       0.20275235       0.36474920      -0.23133635
Ge      24.62369952      41.95539110      12.91470539      -0.00008886       0.00023511      -0.00422181      -4.49376126 F F F      -0.71658303       0.05427044       0.07719808
Ge      23.01856765      43.31381781      14.41178934      -0.00217295      -0.00013216       0.00048971      -4.49140192 F F F       0.39238144      -0.26373831      -0.08866574
Ge      24.51965481      44.79850269      15.72906928       0.00067734       0.00099103       0.00059069      -4.49138264 F F F       0.35314404      -0.50191349       0.39737419
Ge      25.90863642      40.46027789      14.44548026      -0.00036783       0.00341434      -0.00264824      -4.48624939 F F F      -0.29816877       0.03283839       0.26179027
Ge      27.44774930      41.86211169      15.79389053      -0.00331760       0.00118244      -0.00086734      -4.46638450 F F F      -0.24511431      -0.56433309       0.61674637
Ge      26.00180384      43.45765237      11.39855310      -0.00078745       0.00214555       0.00200435      -4.49394367 F F F      -0.02347625      -0.44810695       0.54092232
Ge      27.45484528      44.80935407      12.89522158       0.00077425       0.00176310       0.00080472      -4.50982882 F F F      -0.44984627      -0.08999266       0.05962971
Ge      23.16233819      40.41161622      17.45562708      -0.00394201      -0.00135217       0.00186133      -4.47570327 F F F      -0.61788924      -0.67139703      -0.31842641
Ge      24.46009922      41.85328326      18.92471673      -0.00098641       0.00210561      -0.00050880      -4.44474774 F F F       0.54958386       0.68177660      -0.42516831
Ge      23.05002037      43.33850652      20.41779468      -0.00063964       0.00144287      -0.00058296      -4.48563633 F F F      -0.24754652      -0.25404574      -0.57656609
Ge      24.54366013      44.76061895      21.76485360       0.00119617       0.00141695       0.00044100      -4.50327382 F F F       0.17314644       0.15738391       0.21077037
Ge      25.87015965      40.34347395      20.26636968      -0.00040574       0.00014351       0.00309575      -4.47363979 F F F       0.78577646       0.33557460       0.06684566
Ge      27.47640719      41.84792275      21.61813167       0.00116348      -0.00163863      -0.00040660      -4.50974830 F F F      -0.00090744      -0.24248287      -0.03789991
Ge      25.96585375      43.24946959      17.20973948      -0.00083035      -0.00047800       0.00168685      -4.47451703 F F F      -0.68271926       0.16213919       0.53139544
Ge      27.27165629      44.73922500      18.72876487       0.00101979      -0.00085902      -0.00357475      -4.46412333 F F F       0.21541785       0.49394775      -0.72217996
Ge      23.08897200      40.28563407      23.08173938      -0.00068011       0.00150626      -0.00119769      -4.42037167 F F F      -0.13192392       0.88350493       1.20344855
Ge      24.61420273      41.87802370      24.54445121       0.00180407      -0.00009761      -0.00079858      -4.46568641 F F F      -0.62029868       0.23635989      -0.75859093
Ge      23.03620023      43.34141967      25.88479349      -0.00102021       0.00048708      -0.00159060      -4.49364227 F F F       0.46454018       0.25255793       0.39265564
Ge      24.47474938      44.85165556      27.46505525      -0.00176516       0.00165611       0.00097786      -4.50209004 F F F      -0.05068876      -0.52992893      -0.70972780
Ge      26.07249767      40.54600666      25.91930467       0.00293546      -0.00300888      -0.00175165      -4.45515121 F F F      -0.03978910      -1.10685251       0.32994456
Ge      27.46018251      42.00548002      27.32409098       0.00075570      -0.00092474      -0.00249723      -4.47504225 F F F       0.84589705      -0.09688416       0.44838320
Ge      26.17339113      43.33791280      23.15164412       0.00016949       0.00183075      -0.00036228      -4.46152890 F F F      -0.91440307      -0.42397680      -0.47120453
Ge      27.50570027      44.82113684      24.49731249      -0.00217287      -0.00005056       0.00159390      -4.46606610 F F F       0.49645091       0.20963530       0.75161117
Ge      23.03432919      40.56313021      28.88701215       0.00139170       0.00186164       0.00032215      -4.50475383 F F F       0.15110625      -0.03950974       0.02384494
Ge      24.55024629      41.99446296      30.35604833      -0.00030053      -0.00126134      -0.00027026      -4.49849105 F F F      -0.41199166      -0.31020343       0.01714546
Ge      23.01146205      43.34657273      31.80957339      -0.00009624       0.00237253      -0.00035012      -4.49827752 F F F       0.61192075       0.58000201      -0.04211884
Ge      24.50385237      44.99853274      33.16406972       0.00052884      -0.00025880       0.00054315      -4.48684509 F F F      -0.53060757      -1.09462044       0.39469510
Ge      25.92076140      40.53867151      31.89219384      -0.00242601      -0.00005550       0.00325667      -4.46782973 F F F      -0.13075252      -0.06125337      -0.25677573
Ge      27.40879118      41.88398607      33.28242453       0.00027490      -0.00002886       0.00117183      -4.46419643 F F F       0.14291097       0.62768062      -0.38594281
Ge      25.96618073      43.32106152      28.79614071      -0.00155253       0.00024046       0.00190427      -4.47473274 F F F      -0.29729180       0.15332169      -0.07796574
Ge      27.29193196      44.75393282      30.26896680      -0.00040470      -0.00100187      -0.00104739      -4.47789864 F F F       0.83059157      -0.52552990       0.27535092
Ge      23.07872839      40.53082698      34.71260828      -0.00107873       0.00198632      -0.00124718      -4.51099230 F F F      -0.35801764       0.02029004       0.42422394
Ge      24.50767861      42.03817443      36.12155972       0.00189942      -0.00222561       0.00246889      -4.49117227 F F F       0.19493106      -0.70716798      -0.22219565
Ge      23.04212875      43.38170782      37.54919916       0.00295088      -0.00006989      -0.00043934      -4.47303176 F F F      -0.15529582       0.41597350      -0.24785072
Ge      24.57340352      44.78229349      38.88404410      -0.00175144       0.00035977       0.00014183      -4.48916279 F F F      -0.66800436       0.28080507       0.81094883
Ge      25.95188408      40.36700430      37.46849785       0.00065462      -0.00490259       0.00121343      -4.48314906 F F F       0.15891317       0.96533917      -0.09964236
Ge      27.37702039      41.79348532      38.99188219      -0.00285673       0.00044942       0.00080295      -4.51364372 F F F       0.29564843      -0.16022220       0.18032614
Ge      25.94255828      43.38660319      34.61082549       0.00420563      -0.00087763       0.00077956      -4.49613513 F F F      -0.04094062       0.54575055       0.11783134
Ge      27.34036866      44.72867860      36.22760101      -0.00175570       0.00037571      -0.00123957      -4.49720888 F F F       0.31786140       0.20996745      -0.70805008
Ge      23.05058744      40.47333024      40.44086189       0.00135598      -0.00212503      -0.00023629      -4.51237768 F F F       0.37482133      -0.12967943      -0.21062353
Ge      24.60377333      41.86663942      41.81684653       0.00018370       0.00044471      -0.00210795      -4.47370987 F F F      -0.91430863       0.92583485      -0.29453979
Ge      22.99463419      43.29647834      43.31387483      -0.00070731      -0.00516649       0.00112084      -4.47925838 F F F      -0.02542827      -0.37005579      -0.62513222
Ge      24.52837376      44.65133036      44.65567996      -0.00055861       0.00179436      -0.00302291      -4.48056937 F F F       0.52184938       0.47929744       0.35165944
Ge      25.98839007      40.44364158      43.15931705      -0.00215095      -0.00273462       0.00169510      -4.44791697 F F F      -0.05451123      -0.57904220       0.69844169
Ge      27.46730762      41.85828184      44.50673446       0.00139977       0.00346737      -0.00187584      -4.45270655 F F F      -0.01589773      -0.36431638       1.30785768
Ge      26.01659366      43.38715468      40.35333581       0.00269238       0.00007526       0.00201469      -4.48706834 F F F      -0.16742525      -0.45701529       0.11403402
Ge      27.38878652      44.76064966      41.86890826       0.00104402      -0.00040367       0.00116018      -4.46477018 F F F       0.63861304      -0.30155861       0.23746494
Ge      29.02203342       0.03148122      46.02755508      -0.00117284      -0.00228801       0.00024941      -4.48193924 F F F       0.00940267       0.18785765       0.61638592
Ge      30.50630128       1.44113254       1.34524840      -0.00169772       0.00146790      -0.00016424      -4.49335443 F F F      -0.38996535      -0.19104082       0.06218820
Ge      29.07408031       2.87248589       2.81261686      -0.00186479      -0.00001763       0.00083347      -4.48589948 F F F      -0.88971908      -0.17489221       0.21919243
Ge      30.28466016       4.38453672       4.34949748      -0.00115277      -0.00286353      -0.00156459      -4.44451529 F F F       0.15410526      -0.69403242      -0.02071239
Ge      31.84649572       0.03579801       2.88740665      -0.00302855      -0.00183940       0.00154707      -4.44016296 F F F       0.49507968      -0.70184220      -0.96017749
Ge      33.24688247       1.50890806       4.21237455      -0.00157832      -0.00220608       0.00101800      -4.47593850 F F F      -0.39628255      -0.13407675       0.92043575
Ge      31.85957387       2.86420598      46.06495661      -0.00062821      -0.00227084       0.00166842      -4.49502779 F F F      -0.09905291       0.70700007      -0.00509729
Ge      33.18243289       4.45694960       1.32648291      -0.00128963      -0.00140111       0.00011942      -4.48273044 F F F       0.08144060      -0.75924507      -0.34992473
Ge      28.85780119       0.01638441       5.73839908       0.00055421      -0.00421538      -0.00054579      -4.47751693 F F F      -0.41198148       0.15246283      -0.28414985
Ge      30.15641556       1.40101295       7.27185273      -0.00036917       0.00121901      -0.00014723      -4.45828472 F F F       1.16811150       0.37460781      -0.06848643
Ge      28.88322112       3.09371947       8.60129652       0.00065865      -0.00206883       0.00039519      -4.49183609 F F F      -0.18809142      -0.08204766      -0.23833182
Ge      30.29708679       4.52050165      10.09229889      -0.00163848       0.00195838      -0.00224294      -4.45095291 F F F       0.73005579      -0.94728698      -0.50267468
Ge      31.78951030      46.16374107       8.71817053       0.00140841      -0.00120859       0.00151681      -4.50631870 F F F      -0.46531707       0.01180926       0.14254681
Ge      33.20632862       1.45970076      10.21655168      -0.00088279       0.00084555      -0.00079142      -4.46687944 F F F       0.04902562      -0.62123231      -0.38857922
Ge      31.67595666       2.84667912       5.72399775      -0.00038186      -0.00265576       0.00119046      -4.50417372 F F F       0.18433328      -0.30866448       0.49072011
Ge      33.20671380       4.17621001       7.25352380       0.00051702      -0.00159227      -0.00046008      -4.47688339 F F F       0.20012631       0.22026194      -0.34123993
Ge      28.84946025       0.06605150      11.49159662      -0.00198895       0.00131243       0.00114800      -4.42270066 F F F       0.27248717      -0.05650309       0.55893513
Ge      30.32259601       1.34002979      13.00434215      -0.00289004      -0.00222293       0.00022704      -4.48889517 F F F       0.26615759       0.36892384       0.14412542
Ge      29.02994863       3.00312307      14.35275832       0.00331597      -0.00148844       0.00159818      -4.48674486 F F F      -0.26703001      -0.59664737       0.56669526
Ge      30.48969585       4.34001161      15.95073058       0.00583685       0.00131291      -0.00264360      -4.47965025 F F F      -0.36176239       0.07942673      -0.54990092
Ge      31.73834788      46.04247732      14.47885827      -0.00056376       0.00129985       0.00127676      -4.48734160 F F F       0.40732114       0.82311290      -0.24910063
Ge      33.29867002       1.38605698      15.90349704       0.00032781      -0.00259739      -0.00106110      -4.48284181 F F F      -0.77148175       0.38456082      -0.51423088
Ge      31.65543280       2.82676309      11.49431812       0.00032405       0.00052857       0.00018136      -4.46959751 F F F       0.22625762       0.90456563       0.53450609
Ge      33.26148089       4.33876284      12.96965050      -0.00375679      -0.00181089      -0.00024021      -4.48513789 F F F      -0.75979209      -0.51765268      -0.03701756
Ge      28.82892459       0.00044866      17.20829534      -0.00067914      -0.00119884       0.00379584      -4.49817460 F F F       0.03978323       0.04311096       0.76332521
Ge      30.30155686       1.51839983      18.73644341       0.00056738       0.00019692       0.00175797      -4.46979780 F F F       0.47160153      -0.70703733      -0.02899777
Ge      28.97396370       2.96959267      20.19810512       0.00069628       0.00145636      -0.00178804      -4.48121165 F F F      -0.25580039       0.09420218       0.17589363
Ge      30.44199933       4.35702657      21.74829965      -0.00265510      -0.00206492      -0.00092169      -4.47823152 F F F      -0.20449984      -0.80329654       0.21479348
Ge      31.80711430       0.06024808      20.31638740       0.00277956       0.00106932       0.00271253      -4.47359150 F F F      -0.08830840       0.19726530      -0.50669603
Ge      33.28612477       1.51602201      21.84806469       0.00100805      -0.00009352      -0.00050146      -4.48364695 F F F      -0.52977773       0.15781845      -0.55261245
Ge      31.92017073       2.90926350      17.40369464       0.00160253      -0.00278482       0.00390919      -4.50197925 F F F      -0.16290596      -0.27329356      -0.18894641
Ge      33.30302365       4.43381631      18.82138433      -0.00009430      -0.00026426      -0.00164045      -4.50326640 F F F      -0.11783235       0.12385998      -0.49610638
Ge      28.91908477      46.14843215      22.91319903      -0.00229975      -0.00023227      -0.00074129      -4.45436309 F F F      -0.69970810       0.87293140       0.41366683
Ge      30.12641808       1.49934641      24.55814297       0.00234076       0.00062386       0.00244571      -4.45405042 F F F       0.77733485      -0.43350537       0.31473763
Ge      28.85094632       2.94708307      26.14327546       0.00098767      -0.00202614      -0.00212280      -4.46982742 F F F       0.24258078      -0.20606977      -0.08832046
Ge      30.36095538       4.47170013      27.50279253       0.00076121      -0.00223149       0.00123980      -4.49287458 F F F      -0.10453996      -0.07023688      -0.73163445
Ge      31.75633520       0.05051850      26.06893700       0.00059377       0.00047366       0.00006747      -4.46929596 F F F       0.21481559       0.96277204      -0.67349407
Ge      33.36208117       1.50089487      27.44624329      -0.00074677      -0.00039281       0.00056744      -4.50205395 F F F      -0.16414089      -0.22437790      -0.49860686
Ge      31.80570277       2.93055642      23.41311282      -0.00331954       0.00062642       0.00059292      -4.48037878 F F F      -0.00496271       0.09810234      -0.88863321
Ge      33.25058442       4.55319256      24.67189981      -0.00300300       0.00125105      -0.00044459      -4.47127067 F F F       0.02846761      -0.39530161      -0.55871139
Ge      28.80668247      46.18056985      28.95322575       0.00077259       0.00333889      -0.00149537      -4.42473338 F F F       0.04537462       0.96778308       0.67428054
Ge      30.37435863       1.61720106      30.25197402       0.00107488      -0.00145119      -0.00089259      -4.43818029 F F F       0.20123445      -1.51810034       0.02458760
Ge      28.96731847       2.90233101      31.67617906       0.00264966      -0.00227215       0.00152911      -4.45478037 F F F      -0.79124847       0.83151777       0.73813641
Ge      30.34969402       4.51220800      33.14676620       0.00033937       0.00264081       0.00150190      -4.49795985 F F F       0.13290873      -0.56095346      -0.50861384
Ge      31.80910047       0.03337752      31.83172889       0.00068213      -0.00129808      -0.00288727      -4.49399951 F F F      -0.36569297       0.57679263      -0.34766139
Ge      33.16112769       1.59838900      33.25539366      -0.00161054       0.00070272       0.00032194      -4.48865629 F F F       0.28096460       0.12218610      -0.78243368
Ge      31.80569107       2.89072825      28.73231259       0.00150616       0.00093438      -0.00283421      -4.43365893 F F F      -0.10572969       0.14284777       0.10179796
Ge      33.10778167       4.35130930      30.18228760       0.00071824       0.00312756      -0.00448443      -4.49256517 F F F       0.90466780       0.45174437       0.25661370
Ge      28.85414348      46.17017067      34.71454094       0.00348664       0.00005559      -0.00288007      -4.47998451 F F F      -0.33406405       0.42663535      -0.16986713
Ge      30.16471907       1.74361972      36.03038502      -0.00004591       0.00139298       0.00045700      -4.46188277 F F F       0.46307469      -1.07557350       0.22715706
Ge      28.76432239       3.17295057      37.46559666       0.00150161      -0.00459735       0.00142088      -4.48351002 F F F       0.28526514      -0.41843943       0.07739103
Ge      30.37879296       4.47500433      38.85101213       0.00235090       0.00095459      -0.00292039      -4.49659314 F F F       0.23576504      -0.25738026      -0.28305932
Ge      31.59738363       0.07688677      37.54498685       0.00050421      -0.00029641       0.00129050      -4.44898309 F F F      -0.41221507       0.34407594      -0.62978806
Ge      33.20315265       1.31719817      38.87754201      -0.00205768       0.00180162       0.00281613      -4.47398906 F F F       0.25026100       0.57457877       0.43350898
Ge      31.73610656       3.07518086      34.63286468      -0.00138305      -0.00079338       0.00341811      -4.49311905 F F F       0.06982349      -0.02585088       0.06693898
Ge      33.35346852       4.35505040      36.06626951      -0.00244302      -0.00209391      -0.00043386      -4.47978065 F F F      -0.45905715       0.05440755      -0.30639110
Ge      28.81534631       0.00623830      40.41940365       0.00092815      -0.00216438       0.00008106      -4.50175128 F F F      -0.01319573       0.41590617      -0.10546118
Ge      30.36390134       1.48057817      41.75260211       0.00316882      -0.00045144      -0.00000775      -4.50567737 F F F      -0.20518539       0.33326569      -0.12094912
Ge      28.94318562       3.03212041      43.17996494       0.00128275      -0.00051668      -0.00315153      -4.49102408 F F F       0.22700679      -0.03128424      -0.39113247
Ge      30.34604552       4.44226542      44.68528050      -0.00057570       0.00117276      -0.00108969      -4.51120631 F F F      -0.03130791      -0.26750734       0.17660536
Ge      31.83744245       0.14878679      43.24016125      -0.00128013       0.00116187       0.00093760      -4.48814183 F F F       0.10024148      -0.94661428      -0.09260529
Ge      33.34481527       1.42909905      44.70448053      -0.00009312       0.00206059       0.00340918      -4.47135489 F F F      -0.05655732      -0.14744094       0.29341096
Ge      31.77907133       2.90482502      40.22954884      -0.00117182      -0.00122170      -0.00093447      -4.49191331 F F F       0.40965056       0.17653029       0.58691374
Ge      33.26201478       4.35869207      41.86225758       0.00164154       0.00166641      -0.00132429      -4.47338041 F F F      -0.29641793      -0.81052469      -0.05638310
Ge      28.77810656       5.85392108      46.07864628      -0.00176426      -0.00358273       0.00020198      -4.47970783 F F F       0.37338058      -0.36753002       0.26543352
Ge      30.44932166       7.13154901       1.33699600       0.00059846      -0.00000552       0.00319555      -4.49233569 F F F      -0.37574070       0.25078765      -0.14725439
Ge      28.98143945       8.62371556       2.75374659      -0.00114643       0.00056618       0.00072871      -4.51140697 F F F       0.07490635       0.00632541      -0.13865863
Ge      30.37156134      10.11611929       4.20176495      -0.00635868      -0.00169236      -0.00215453      -4.49429971 F F F       0.17707780       0.30941385      -0.32165534
Ge      31.78787528       5.63733648       2.91611468       0.00150601       0.00073879       0.00014616      -4.45017567 F F F       0.02255822       1.11469821      -0.38808550
Ge      33.30801168       7.18951291       4.20504905       0.00397987       0.00127554      -0.00266547      -4.40315088 F F F      -1.51817402       0.24036594       0.20690763
Ge      31.69290246       8.68950951      45.91723490      -0.00026640      -0.00525971       0.00311556      -4.47964671 F F F       0.71238968      -0.18586822       1.12103578
Ge      33.16185168      10.17604147       1.29318483      -0.00272538       0.00074473       0.00017464      -4.50366896 F F F      -0.38879430      -0.43356032      -0.09371817
Ge      28.86154997       5.81845137       5.69862651       0.00017053       0.00100225      -0.00026191      -4.45673354 F F F      -0.64268819      -0.58642523       0.47075828
Ge      30.39690006       7.12761698       7.06901891       0.00291479       0.00032462       0.00104110      -4.47378522 F F F       0.34938665       0.28291338       0.37737455
Ge      28.87715470       8.59154869       8.37967670      -0.00234340      -0.00012151       0.00054642      -4.48115490 F F F       0.06446855      -0.31586453       1.18389049
Ge      30.20388920      10.07467387       9.97920447      -0.00016556       0.00012762      -0.00026125      -4.47070078 F F F       0.55529630      -0.31471577      -0.53146634
Ge      31.88816095       5.76651442       8.63516546      -0.00006712       0.00269743       0.00330446      -4.50494708 F F F      -0.04941794       0.42177509       0.16288032
Ge      33.34865381       7.31055972      10.15065789       0.00007387      -0.00325733       0.00417278      -4.49652934 F F F      -0.88485675      -0.51322262      -0.56916030
Ge      31.79202290       8.66454529       5.67030069       0.00210704       0.00117589       0.00384800      -4.51596230 F F F       0.24026313      -0.23972932      -0.09750681
Ge      33.25166003      10.03052513       7.20084682       0.00390633       0.00412227      -0.00154331      -4.50460526 F F F      -0.20446142       0.15057382      -0.38401267
Ge      28.78415286       5.82197489      11.38688465      -0.00116576       0.00158894       0.00118419      -4.45450798 F F F      -0.37966257       0.53252855       0.53607385
Ge      30.25029312       7.27644494      12.79410432       0.00071689      -0.00047708      -0.00038643      -4.51801592 F F F       0.36970342      -0.25213845       0.59610125
Ge      28.90285818       8.62686490      14.44802169      -0.00212452      -0.00045171       0.00303515      -4.42426249 F F F      -0.30772342      -0.57104314      -0.87168847
Ge      30.31521876       9.94555263      15.81365559       0.00304005      -0.00433244       0.00047023      -4.43654782 F F F       0.37739779       1.26537392       0.89065197
Ge      31.73327947       5.79684565      14.32217708       0.00106547      -0.00155217      -0.00030285      -4.48162111 F F F      -0.07827579       0.08426912       0.03627494
Ge      33.05195300       7.24339493      15.90111236      -0.00356358       0.00141918       0.00165288      -4.47783327 F F F       0.22408105      -0.18316435      -0.17973369
Ge      31.75887647       8.75451715      11.41722672       0.00061903      -0.00144900       0.00022057      -4.44337798 F F F      -0.25916227      -0.43477056      -0.03153861
Ge      33.37542797       9.93584416      12.82545734      -0.00052745      -0.00159285      -0.00040699      -4.44216762 F F F      -0.50891493       1.21377344       0.00710464
Ge      28.96616095       5.82260929      17.26876988      -0.00118262      -0.00257555       0.00107484      -4.50017659 F F F      -0.00185657       0.25151097      -0.05763394
Ge      30.36421684       7.22547008      18.85861470       0.00119827       0.00172139      -0.00011852      -4.50533737 F F F      -0.15379476      -0.29709198      -0.24198982
Ge      28.75391097       8.57018901      20.16877690       0.00212886       0.00072569       0.00054417      -4.49376698 F F F       0.19409526       0.62063212       0.30257513
Ge      30.21451778      10.20103826      21.52907647       0.00072100      -0.00289524       0.00190783      -4.50657421 F F F      -0.18574115      -0.15970655       0.15786842
Ge      31.80461177       5.74591011      20.30829532      -0.00240972      -0.00067061      -0.00094073      -4.49248126 F F F       0.21203535       0.51630829      -0.26970927
Ge      33.22289830       7.23761750      21.74247311       0.00102680      -0.00071224      -0.00087745      -4.44403374 F F F      -0.85858522       0.33620874      -0.33155633
Ge      31.75936043       8.71222784      17.42943892       0.00016989      -0.00139025      -0.00027832      -4.48963339 F F F      -0.15198251       0.03914844      -0.11421624
Ge      33.21166926      10.21629203      18.79718165       0.00133816       0.00367088      -0.00056067      -4.51381976 F F F      -0.04749275       0.26135562      -0.29757601
Ge      28.94334119       5.75254610      23.10458089      -0.00144544      -0.00246831       0.00261570      -4.50525428 F F F      -0.23509500       0.27613009       0.47591683
Ge      30.33561545       7.41799654      24.44663916       0.00156648       0.00265484      -0.00098322      -4.47617919 F F F      -0.27616248      -1.07548599       0.32304254
Ge      28.74760151       8.65245855      25.85176274       0.00136880       0.00158768      -0.00209556      -4.48666405 F F F       0.15834650       0.03410048       0.44140958
Ge      30.27849663      10.04472378      27.25555573       0.00016750      -0.00091815       0.00279460      -4.51655026 F F F      -0.44070524       0.55961045      -0.09714339
Ge      31.78961295       5.99143510      25.98873314       0.00283398      -0.00044079      -0.00557626      -4.50126332 F F F      -0.28127730       0.34366408       0.61010827
Ge      33.32204150       7.41719254      27.52837742       0.00182085      -0.00086775      -0.00116278      -4.39929520 F F F      -1.14254170      -0.76143070      -0.34880957
Ge      31.67573137       8.80616670      22.99473212      -0.00089543      -0.00042867      -0.00288031      -4.48974269 F F F       0.33700515      -0.00016378      -0.35706178
Ge      33.12143733      10.23001694      24.39459779      -0.00160473       0.00196782       0.00040429      -4.40571668 F F F       0.36516965      -1.24105620       0.24294221
Ge      28.78099794       5.75200576      28.92601333       0.00231912      -0.00135597      -0.00195731      -4.47211024 F F F       0.66545993       0.31208866       0.21308352
Ge      30.33707992       7.28400807      30.23803634       0.00142069       0.00318169       0.00151772      -4.51495722 F F F      -0.11346593      -0.27681674       0.14685723
Ge      28.93702969       8.73658945      31.68801430      -0.00157254      -0.00148586      -0.00114632      -4.51007218 F F F       0.12962950       0.26422104       0.19352415
Ge      30.39293110      10.38129206      33.03545827       0.00106206       0.00171369      -0.00245020      -4.43953389 F F F      -0.18852511      -1.10621053       0.84275776
Ge      31.87191077       5.88271406      31.66689919      -0.00417837      -0.00064735       0.00069871      -4.50392915 F F F      -0.53445033       0.19289680       0.21584172
Ge      33.29872255       7.36980790      33.10206277       0.00016280      -0.00231664       0.00086628      -4.50312639 F F F      -0.26277891       0.01504329      -0.02338477
Ge      31.70056695       8.78752078      28.80336375      -0.00068906      -0.00084532       0.00169942      -4.48509899 F F F       0.20273831      -0.13234167       0.12294343
Ge      33.09807732      10.34137104      30.15287464       0.00080021      -0.00318540      -0.00205881      -4.51458812 F F F       0.17466830       0.25682884       0.25644818
Ge      28.90826158       5.80849964      34.61783211       0.00220455       0.00159082      -0.00339183      -4.46524783 F F F       0.28741043       1.09083024      -0.16581989
Ge      30.40716548       7.37024506      36.02471241       0.00003176       0.00036141       0.00159758      -4.50634579 F F F      -0.49185911      -0.40360736       0.10098744
Ge      28.93419928       8.79391693      37.54554779       0.00356277      -0.00031979      -0.00054956      -4.49097951 F F F      -0.27405463      -0.14678705      -1.06052984
Ge      30.43402015      10.20399293      38.84215150       0.00097391      -0.00193721      -0.00031043      -4.45967900 F F F      -0.36183402       0.13213623       0.53664554
Ge      31.89464057       5.86470616      37.38671875      -0.00007570       0.00028378       0.00064282      -4.50104474 F F F      -0.28844378       0.00782888       0.29471258
Ge      33.22995859       7.20947580      38.98739982       0.00002234       0.00157369       0.00088800      -4.49737397 F F F       0.39658448      -0.33399032       0.20376813
Ge      31.83792986       8.79047317      34.61559213       0.00063496       0.00143165       0.00079932      -4.45964130 F F F      -0.37335973       0.11118282      -0.96794346
Ge      33.24708882      10.11063150      36.10159361      -0.00182365       0.00100753       0.00044516      -4.46136152 F F F      -0.20660110       0.12066954       0.94335808
Ge      28.96804831       5.82120181      40.32095167       0.00365190      -0.00101155      -0.00176503      -4.48996449 F F F      -0.39668738      -0.01969650       0.06313305
Ge      30.38924997       7.23248839      41.71636309      -0.00123507       0.00150606       0.00098911      -4.45999030 F F F      -0.34693731       0.05068652       0.13453727
Ge      28.84282251       8.62242721      43.03616851      -0.00065967       0.00056737       0.00378407      -4.49065319 F F F       0.01295796       0.04974732       0.58588088
Ge      30.26090426      10.03360323      44.51200543       0.00000582       0.00151241       0.00124467      -4.48821434 F F F      -0.24476599       0.59076787      -0.09352510
Ge      31.76135671       5.88376732      43.22726292      -0.00255347       0.00207326       0.00180777      -4.48095995 F F F       0.14862977      -0.77041160      -0.26480541
Ge      33.21357115       7.28616229      44.54058472      -0.00281287      -0.00209961       0.00388847      -4.43555877 F F F      -0.11750980      -0.05626805       0.76336232
Ge      31.74111151       8.70142094      40.33133640       0.00200360       0.00171345      -0.00132932      -4.49110735 F F F       0.92497532       0.45507979       0.04422750
Ge      33.34865522      10.12431991      41.78070552      -0.00211132      -0.00023702      -0.00131581      -4.46861219 F F F      -1.22680996      -0.04438794       0.32973587
Ge      28.78238519      11.43329603      45.97543258       0.00050716      -0.00269532      -0.00128884      -4.49190649 F F F       0.25589677       0.30481004      -0.01022468
Ge      30.08283332      13.05149329       1.22915351      -0.00036793       0.00206278      -0.00094268      -4.47585469 F F F       0.59463395      -0.07441821      -0.03616242
Ge      28.82927113      14.46634335       2.83520121      -0.00009782       0.00194607      -0.00185874      -4.47445236 F F F       0.33454130       0.44201056      -0.41996775
Ge      30.48809735      15.85947102       4.16203751      -0.00394402      -0.00159363      -0.00104290      -4.48735861 F F F      -0.02541808      -0.31508803       0.45287293
Ge      31.65297427      11.69321565       2.59830005      -0.00102261      -0.00126338       0.00126344      -4.48175284 F F F      -0.01823188      -0.69963555       0.55552842
Ge      33.19424514      12.91039402       4.13352640      -0.00196104       0.00051800       0.00110818      -4.46491386 F F F      -0.44868702       0.81283194       0.24284930
Ge      31.80555178      14.49732671       0.00512498      -0.00044805      -0.00028750       0.00329794      -4.48108380 F F F      -0.45792481      -0.20497952      -0.69005511
Ge      33.22158470      16.00081480       1.38151268       0.00169471       0.00033261      -0.00018342      -4.49417662 F F F       0.34950686       0.16846759      -0.34427114
Ge      28.95838851      11.59549009       5.62014018       0.00089947      -0.00092066      -0.00006733      -4.50065700 F F F      -0.38525375      -0.08211822      -0.11630181
Ge      30.30795022      12.98005241       7.15902510       0.00255638      -0.00074600       0.00197779      -4.47686834 F F F       0.98532865      -0.18884809       0.18235799
Ge      28.90054418      14.45317163       8.54863495      -0.00197149       0.00176492      -0.00122701      -4.49439114 F F F      -0.12855633      -0.18616274       0.42898584
Ge      30.33498435      15.84713968      10.03155867       0.00056764       0.00160708       0.00176869      -4.49878208 F F F      -0.27585720       0.33352625       0.07421404
Ge      31.86836597      11.45196813       8.69930481       0.00095562       0.00358095       0.00248216      -4.47478215 F F F      -0.56853278       0.72144670      -0.40206204
Ge      33.29207019      13.05577240      10.06359805       0.00035299       0.00386446      -0.00074277      -4.48694166 F F F      -0.31522680      -0.41087717      -0.09016486
Ge      31.89337247      14.42858276       5.78921207      -0.00015130       0.00137976      -0.00044494      -4.47428964 F F F      -0.44667858      -0.19867380      -0.69238427
Ge      33.19913311      16.07060934       7.13579583       0.00072958      -0.00031646      -0.00124561      -4.47264762 F F F      -0.15321535      -0.15795430      -0.22597483
Ge      28.86246415      11.47322244      11.43446367      -0.00399747      -0.00240778       0.00149944      -4.48106124 F F F      -0.33073687       0.49264983       0.22336292
Ge      30.33532736      12.89834970      12.83690490      -0.00048150      -0.00029497      -0.00124506      -4.49917433 F F F       0.40787515      -0.08932832       0.43192454
Ge      28.81584155      14.28987285      14.31405867       0.00217970      -0.00038730      -0.00012354      -4.47181976 F F F       0.46716141       0.73491624      -0.46851799
Ge      30.26146922      15.78849054      15.70511129      -0.00321921       0.00338244      -0.00329935      -4.49191905 F F F      -0.14168894       0.02425078       0.82193144
Ge      31.83904901      11.32678254      14.32801301       0.00079191       0.00200577      -0.00045780      -4.49250451 F F F      -0.36948119       0.27077694      -0.32348595
Ge      33.12144117      12.79515488      15.87310387       0.00282508       0.00102514       0.00181177      -4.48529963 F F F      -0.03653189       0.86621569      -0.12123864
Ge      31.77744429      14.44843307      11.44472850      -0.00087082       0.00212614      -0.00114134      -4.48354402 F F F       0.38086844      -0.10970308       0.77871327
Ge      33.37501728      15.81602038      13.03217297       0.00412640       0.00067218      -0.00028527      -4.43783143 F F F      -1.33204710       0.49135275      -0.88174773
Ge      28.81971866      11.54276782      17.33438130       0.00110381      -0.00044139       0.00181156      -4.47899709 F F F       1.00235316      -0.31513766      -0.30823196
Ge      30.25754789      13.04109973      18.79582095       0.00186088       0.00018849      -0.00107921      -4.45794989 F F F      -0.86782147      -0.42153505       0.63249938
Ge      28.80170493      14.58864444      20.23264144      -0.00063140      -0.00070856      -0.00204144      -4.48951333 F F F      -0.50754541      -0.89802042      -0.54104369
Ge      30.22477052      15.91853306      21.66069428       0.00269520       0.00237803       0.00240549      -4.48362925 F F F       0.31867518       0.74199501       0.17332989
Ge      31.75698805      11.71838197      20.27250693       0.00081083      -0.00126112       0.00112482      -4.46867655 F F F      -0.42194151      -0.77198503      -0.72012961
Ge      33.11366326      13.16828862      21.61208530       0.00205035      -0.00248513       0.00070426      -4.48089381 F F F       0.56770101      -0.05884826       0.46975540
Ge      31.57868477      14.31690324      17.31352949      -0.00097778      -0.00224941      -0.00073715      -4.45293538 F F F       0.74134968       0.56075942      -1.30813323
Ge      33.00734594      15.91088882      18.56971668      -0.00272151      -0.00120504       0.00067846      -4.42311782 F F F       0.07746358      -0.10631289       0.41246114
Ge      28.85812023      11.61829610      23.16352537       0.00022811       0.00245832       0.00166876      -4.47686066 F F F       0.01120741      -0.28176986      -0.90549107
Ge      30.28208573      13.11221115      24.46081794       0.00022820      -0.00050206      -0.00256521      -4.43579813 F F F       0.18330492      -0.44670766       0.25725066
Ge      28.82421083      14.44791081      25.86344075      -0.00111189       0.00077348      -0.00108953      -4.50129819 F F F      -0.18900031       0.40964770       0.80266412
Ge      30.22886089      15.85651160      27.44160053      -0.00161855      -0.00062142       0.00147515      -4.48706191 F F F       0.37364024       0.09318499      -0.94343061
Ge      31.66136023      11.50373653      25.76102111      -0.00158199       0.00082624       0.00061545      -4.48136569 F F F      -0.21579833       0.72003764       1.19968742
Ge      33.07920312      12.88761745      27.38973467      -0.00147452      -0.00314630      -0.00138848      -4.43464651 F F F      -0.21343549       0.30002173      -1.19688411
Ge      31.70167150      14.54967150      23.11432654      -0.00078025      -0.00075300       0.00195419      -4.48032042 F F F      -0.01949675      -0.05365920      -0.51770991
Ge      33.17661647      15.94386388      24.46292354       0.00278351       0.00180585      -0.00198930      -4.49653057 F F F       0.45665309      -0.18365863       0.50383544
Ge      28.84917059      11.56727868      28.75923274       0.00319425      -0.00161264      -0.00037248      -4.46897582 F F F       0.26582248      -0.48132189      -0.70136465
Ge      30.13970391      13.09489074      30.09605353       0.00130548       0.00158874      -0.00031875      -4.45573324 F F F       0.60826693       0.10048361       0.90334920
Ge      28.74483578      14.62265006      31.48375992       0.00152319      -0.00038384       0.00191680      -4.48253803 F F F      -0.25147188      -0.61361707       0.35909257
Ge      30.15772284      15.92748867      32.99247709       0.00440822      -0.00050151      -0.00241102      -4.49147162 F F F       0.53296487       0.65783419       0.28032794
Ge      31.71502625      11.85681008      31.66029824      -0.00208809      -0.00124451       0.00278293      -4.47808676 F F F       0.57768844       0.33362691      -0.27209898
Ge      33.25709915      13.29337824      33.22598088      -0.00236867      -0.00206320       0.00070119      -4.46459598 F F F      -0.30456087      -1.41862085      -0.31214169
Ge      31.71635550      14.37501754      28.74875224       0.00084891      -0.00094538      -0.00114147      -4.46348431 F F F       0.21330556       0.76728130       0.44426130
Ge      33.21772095      15.89915281      30.20729848      -0.00124505       0.00073968       0.00019704      -4.51919373 F F F      -0.19253304      -0.21506383      -0.03883653
Ge      29.01699111      11.70112629      34.65556127       0.00363690       0.00176352      -0.00397152      -4.48496151 F F F      -0.25617468       0.36952471      -0.34115987
Ge      30.44874040      13.32506219      36.11098912       0.00118815       0.00202800       0.00239649      -4.45306849 F F F      -0.56382213      -0.87510450      -0.60950513
Ge      28.77736744      14.55715422      37.38836174       0.00113968      -0.00275002      -0.00103860      -4.45965997 F F F       0.23557993       0.25635858       0.91474133
Ge      30.30445128      16.14690690      38.84318548      -0.00119542       0.00267689      -0.00335164      -4.41504369 F F F      -0.61086765      -1.76643320       0.91425002
Ge      31.75861133      11.74266052      37.48988455      -0.00091946       0.00086088      -0.00021806      -4.47370886 F F F       0.79408846      -0.37046532      -0.38330435
Ge      33.29917658      13.03274933      38.94949761      -0.00256723       0.00093803       0.00097854      -4.46983366 F F F      -0.04305173       0.46243935      -0.67010751
Ge      31.73715762      14.69756413      34.51868326      -0.00022824       0.00287224       0.00008034      -4.43855283 F F F      -0.21859196      -0.02265017       0.06136334
Ge      33.15463049      15.95209235      36.10224731       0.00360696      -0.00230137       0.00202363      -4.45981534 F F F       0.41044817      -0.03841707      -0.48635002
Ge      28.96180153      11.62926614      40.29005229       0.00071924      -0.00453618      -0.00065631      -4.50955503 F F F      -0.30034511       0.17029899      -0.11951329
Ge      30.30518813      13.12944507      41.77006865       0.00141690       0.00063943      -0.00103146      -4.48991446 F F F      -0.06201653      -0.19924797      -0.09072824
Ge      28.82999508      14.52189065      43.22708485       0.00141872      -0.00025363       0.00094392      -4.51712417 F F F      -0.16915734       0.01520334       0.35072208
Ge      30.35674831      15.96676131      44.67647787      -0.00053246      -0.00161689       0.00029832      -4.48255067 F F F      -0.59892476      -0.66284377       0.67746353
Ge      31.69650766      11.65045992      43.23702289       0.00174976      -0.00042813       0.00403643      -4.42985299 F F F      -0.02182821      -1.10302547      -0.98222990
Ge      33.13877357      13.01662619      44.52771777      -0.00262744       0.00147638       0.00077349      -4.44304141 F F F       0.83947798       0.85666772       1.19401250
Ge      31.81031765      14.44527778      40.31112503       0.00083805       0.00293225      -0.00104100      -4.46562783 F F F      -0.56244440       0.80836343      -0.29293170
Ge      33.15992120      15.86227058      41.82615964      -0.00243443       0.00020845      -0.00015245      -4.50166200 F F F       0.56228483      -0.00055620      -0.10744275
Ge      28.87364176      17.36864937       0.00319363      -0.00219694       0.00068289      -0.00055602      -4.48176364 F F F       0.80724004       0.56846610      -0.52723537
Ge      30.48438558      18.81373906       1.41979233      -0.00421388      -0.00147821       0.00176306      -4.50755701 F F F      -0.62105823      -0.03147371      -0.27389242
Ge      28.95656021      20.24259865       2.80737518      -0.00228497      -0.00061977      -0.00067921      -4.51259679 F F F       0.15612425       0.08735993       0.14513128
Ge      30.25174770      21.66917652       4.43120855       0.00085080      -0.00128875      -0.00109199      -4.47459395 F F F       0.57833837       0.35301214      -0.62010536
Ge      31.92329005      17.49198499       2.92583049      -0.00072537       0.00046648       0.00026311      -4.44176616 F F F      -0.39965452      -0.67680670      -0.58393916
Ge      33.39886890      18.86382735       4.23309351      -0.00137381       0.00304967       0.00112785      -4.47522289 F F F      -0.13496459       0.80645281       0.61730613
Ge      31.81759331      20.23493123      46.04556769      -0.00366639       0.00320573      -0.00031869      -4.48840313 F F F       0.25275147       0.04688101       0.51473374
Ge      33.17685825      21.74722075       1.39275478      -0.00036761      -0.00003793      -0.00113529      -4.45285134 F F F      -0.19036880      -0.82434299       0.34787278
Ge      28.98587639      17.17813587       5.62848200      -0.00059245       0.00130059      -0.00083501      -4.48155347 F F F      -0.33411784       0.99538479       0.09005463
Ge      30.24172058      18.82489608       7.12056724      -0.00016040      -0.00112457       0.00134993      -4.49822789 F F F       0.65220096      -0.31873937      -0.36850092
Ge      28.85253893      20.25356502       8.56447831      -0.00026205      -0.00247454      -0.00272645      -4.44045130 F F F      -0.18717543      -0.62231985       0.28462479
Ge      30.25033686      21.56750155      10.03910803      -0.00105027      -0.00183631       0.00231081      -4.48839452 F F F       0.24953038       0.00321142       0.98317053
Ge      31.69353666      17.37278123       8.60088771       0.00093818       0.00095531       0.00010205      -4.51494236 F F F      -0.26696180       0.25531217      -0.10734205
Ge      33.10831829      18.75876029      10.09453450      -0.00306892       0.00020151      -0.00306155      -4.45854635 F F F       0.31166874      -0.04520994      -0.33094577
Ge      31.87902027      20.31591411       5.79574198      -0.00134731      -0.00422528      -0.00014686      -4.48097644 F F F      -0.08970042      -0.52219724      -0.05942094
Ge      33.29927087      21.67167161       7.37915132       0.00024407       0.00020897       0.00040736      -4.46962239 F F F      -0.42888944       0.25501848      -0.64678141
Ge      28.86868718      17.29027354      11.55148291      -0.00092128      -0.00082765       0.00075849      -4.50326633 F F F       0.59032675       0.56051205      -0.32799537
Ge      30.34485031      18.84321035      13.00074056       0.00263663       0.00087294       0.00170477      -4.46388781 F F F      -0.60570758      -1.16670726       0.21788674
Ge      28.81993566      20.27294563      14.35833705      -0.00151932       0.00206289      -0.00333955      -4.49479861 F F F       0.46906919       0.34197847      -0.00742998
Ge      30.31749250      21.65227365      15.88946984       0.00213750       0.00152002      -0.00238324      -4.50427735 F F F      -0.39461078      -0.23347059      -0.18997229
Ge      31.78658854      17.23963712      14.39051010       0.00235321       0.00018020       0.00047194      -4.49297786 F F F      -0.06273899       0.13481464      -0.24860274
Ge      33.12480719      18.77630530      15.81356709       0.00017740       0.00121961      -0.00273300      -4.49942751 F F F       0.32185541      -0.02880233       0.05922564
Ge      31.75919441      20.10626017      11.56410779      -0.00099222       0.00311295       0.00205942      -4.44535826 F F F       0.00216007       1.50443041      -0.31689287
Ge      33.19389444      21.73467216      12.93806595      -0.00026405      -0.00141462      -0.00110452      -4.50701474 F F F       0.35490608      -0.44734314      -0.68221314
Ge      28.89452598      17.33218296      17.31442390      -0.00308493      -0.00070397       0.00164610      -4.49262380 F F F       0.07865052      -0.12376123      -0.63621480
Ge      30.28534787      18.74141871      18.85938156       0.00195948       0.00346848       0.00485186      -4.50241355 F F F      -0.15812575       0.00281774      -0.06558016
Ge      28.74921225      20.28434739      20.15569323       0.00092313       0.00048860       0.00026993      -4.50490189 F F F       0.08285368      -0.35810281       0.28572593
Ge      30.15257011      21.71044617      21.67066177       0.00146787       0.00148917       0.00122798      -4.48879595 F F F       0.01254098      -0.08933714       0.09752158
Ge      31.81773130      17.29749182      20.25083837       0.00288907       0.00013576       0.00080168      -4.47637879 F F F      -0.93372533       0.01609530      -0.03657848
Ge      33.03393575      18.79614418      21.78387143      -0.00124184      -0.00094728      -0.00225774      -4.46682639 F F F       0.79926563      -0.00776074      -0.21927685
Ge      31.65579088      20.09731540      17.29727788      -0.00101945       0.00063104       0.00088699      -4.49447335 F F F       0.32493247       0.57936254       0.32456540
Ge      33.18332261      21.57499033      18.79254628       0.00038036       0.00015499      -0.00028131      -4.44497596 F F F      -1.44535180       0.06833443      -0.00327486
Ge      28.76102305      17.47042659      23.03613602      -0.00054614      -0.00396767       0.00089843      -4.50654393 F F F       0.26318083      -0.43861774       0.42667245
Ge      30.21722487      18.89588826      24.57066552      -0.00195772       0.00069017       0.00377474      -4.47406185 F F F       0.30761793      -0.24682191      -0.85006960
Ge      28.81504406      20.34403455      25.90545056      -0.00115160       0.00004852       0.00015329      -4.42081502 F F F      -0.08680409       1.48296444      -0.49273770
Ge      30.29942219      21.84473551      27.35484161      -0.00098264      -0.00541784       0.00036214      -4.48560831 F F F      -0.30068379       0.11395092      -0.74399057
Ge      31.63776657      17.31847472      25.86349211       0.00309398      -0.00143456       0.00163418      -4.49104216 F F F      -0.36988688      -0.32911696       0.20077689
Ge      32.98382854      18.74307047      27.30922773      -0.00275897      -0.00087859       0.00295253      -4.46046117 F F F       0.31856488       0.16550221       0.19955197
Ge      31.72047902      20.40072172      23.13914019       0.00086003       0.00244906       0.00155080      -4.50138759 F F F      -0.44011267      -0.29563292       0.29110961
Ge      33.26511149      21.71684930      24.63129200       0.00240564       0.00205887       0.00083188      -4.47251954 F F F      -0.34787025       0.57174326      -0.78210374
Ge      28.91314819      17.44355887      28.75802077      -0.00221574      -0.00295347       0.00040299      -4.48326365 F F F      -0.39207477       0.56042914       0.31118387
Ge      30.24185625      19.02026826      30.26596158      -0.00044832       0.00237856      -0.00086669      -4.50021532 F F F       0.09176608      -0.41361992      -0.03056430
Ge      28.74851058      20.47854689      31.76706160      -0.00200519      -0.00129815       0.00488942      -4.48228297 F F F       0.95568512      -0.41630307      -0.18036399
Ge      30.32639906      21.84853809      33.15106553       0.00097274       0.00104943       0.00241563      -4.47107867 F F F       0.15273781      -0.41459310      -0.68598578
Ge      31.72180694      17.38982849      31.61341759       0.00046833      -0.00193323       0.00018470      -4.46459212 F F F      -0.55148574      -0.29966972      -0.49317929
Ge      33.17253828      18.73452534      32.99424204       0.00018083      -0.00135094       0.00215243      -4.46104365 F F F       0.88545982       0.11750368       0.29229914
Ge      31.67946530      20.36558492      28.66746132      -0.00022651       0.00308278       0.00365034      -4.46786434 F F F      -0.01728843      -0.45086991       0.74069630
Ge      33.05840442      21.73523114      30.21359742      -0.00246465      -0.00233291      -0.00021058      -4.50561596 F F F       0.62163941       0.00180816      -0.45597177
Ge      28.82773778      17.40190363      34.57392583      -0.00016285      -0.00114593       0.00045490      -4.48262212 F F F       0.14452088      -0.42768660      -0.49601915
Ge      30.30878858      18.72523434      35.96682359      -0.00095014      -0.00340514       0.00158464      -4.50283491 F F F       0.49081624       0.36039112      -0.14306181
Ge      28.84527251      20.12856871      37.38154062      -0.00159413      -0.00183161      -0.00158569      -4.47378832 F F F      -0.12293774       0.59645209       0.15144866
Ge      30.23777296      21.69308557      38.73381374      -0.00122336      -0.00129529      -0.00285295      -4.48988555 F F F       0.10602768      -0.12959199       0.33038002
Ge      31.78291457      17.38319968      37.46574058      -0.00006416      -0.00109698       0.00185710      -4.41356620 F F F      -0.03214991       0.75890701      -0.40017549
Ge      33.15567521      18.94442174      38.75164067      -0.00112183      -0.00031008      -0.00161631      -4.44528939 F F F       0.09060279      -0.86743974       0.72714061
Ge      31.69827064      20.12536799      34.33216672      -0.00032734       0.00183797      -0.00430289      -4.47210077 F F F      -0.36085505       0.28578663       0.71156153
Ge      33.17250899      21.49874138      35.77475427       0.00159384       0.00165679      -0.00009608      -4.48615117 F F F      -0.25127007       0.93611056       0.02257915
Ge      28.82558507      17.35010495      40.47579384       0.00291939       0.00139343       0.00155900      -4.46679053 F F F       0.51348354      -0.08619572       0.25910990
Ge      30.28015917      18.83739215      41.90953430      -0.00263228      -0.00117124       0.00068277      -4.48267600 F F F       0.25504093      -0.45399210      -0.73958331
Ge      28.99954294      20.27101149      43.38950630      -0.00445251       0.00011207      -0.00077627      -4.48010185 F F F      -0.74708611       0.15947533       0.03982549
Ge      30.32382476      21.80276479      44.84324447       0.00289588      -0.00016645      -0.00114365      -4.48271819 F F F      -0.00018116      -0.30644111      -0.54142924
Ge      31.72255493      17.31811563      43.24579999       0.00153894      -0.00289158       0.00179500      -4.46028162 F F F       0.68631327       0.58928822      -0.21342260
Ge      33.29546219      18.83437182      44.55382910      -0.00166119       0.00006528      -0.00096327      -4.51591547 F F F      -0.27024141       0.04616047      -0.05524220
Ge      31.59614905      20.15725717      40.17654892      -0.00084070      -0.00136582      -0.00351314      -4.48454827 F F F      -0.15368622       0.51475684       0.58419621
Ge      32.99925445      21.64735887      41.63953549       0.00389906      -0.00086741       0.00088532      -4.43287136 F F F       0.29127454      -0.39356122      -0.34277328
Ge      28.67869667      23.17021257      46.14636680      -0.00202316      -0.00030787      -0.00280981      -4.38458306 F F F       0.31530790      -0.25377558      -0.77925762
Ge      30.15294908      24.48278076       1.25887201      -0.00079572      -0.00121388       0.00003791      -4.44930673 F F F       0.65489762       0.87301800       1.04620058
Ge      28.81121057      25.94298413       2.86323085      -0.00012343      -0.00189940       0.00110821      -4.46489239 F F F       0.86400777       0.58569967      -0.57613218
Ge      30.33809005      27.40330660       4.35451979       0.00010403       0.00173581      -0.00018053      -4.49430330 F F F      -0.82506287       0.46961174      -0.37053463
Ge      31.60539505      23.18381768       2.77711812       0.00335252       0.00043835       0.00082965      -4.51304980 F F F       0.16779750      -0.53232148       0.52982992
Ge      33.09400024      24.67160207       4.19058891      -0.00076191      -0.00044186       0.00108336      -4.45684750 F F F      -0.02568903      -0.80446990       0.18054910
Ge      31.77924702      25.84144293      46.10248740       0.00022042      -0.00062499       0.00088834      -4.48349373 F F F       0.21130148       0.13116995       0.51930734
Ge      33.24339247      27.33608914       1.37240588       0.00121088      -0.00022820      -0.00050667      -4.50865637 F F F      -0.06894405      -0.11085932       0.33616365
Ge      28.86045443      23.19731428       5.81687958      -0.00045357      -0.00166542      -0.00155669      -4.50746078 F F F      -0.32079642      -0.20001094      -0.06334872
Ge      30.32640962      24.62794884       7.21391362      -0.00053589      -0.00220482       0.00539158      -4.50628585 F F F       0.44270205      -0.03414378      -0.40910359
Ge      28.93582139      26.06248721       8.64214553      -0.00013254       0.00036212       0.00004459      -4.48211073 F F F       0.14088126      -0.36057670       0.74209819
Ge      30.27728252      27.50968486      10.24302804       0.00081366       0.00119581      -0.00092379      -4.49241658 F F F       0.14670591      -0.23451427      -0.80190018
Ge      31.61174606      23.03966322       8.65803639       0.00230941       0.00072523       0.00037380      -4.48282066 F F F       0.60626648       0.31383332      -0.18445054
Ge      33.01896038      24.52274834      10.09872541      -0.00003967       0.00242665      -0.00301505      -4.47823580 F F F       0.62225995       0.16021955      -0.58816982
Ge      31.84283125      26.09249129       5.71388819      -0.00218657      -0.00380394      -0.00194707      -4.43778359 F F F      -0.63914219      -0.58890965       0.69616300
Ge      33.17649440      27.43799797       7.24648309      -0.00046037       0.00042147       0.00082698      -4.48529098 F F F       0.82456925       0.04790846      -0.14528266
Ge      28.88865842      23.07227586      11.53757942      -0.00033265      -0.00245388       0.00249655      -4.50319889 F F F       0.15124216       0.26130557      -0.32248638
Ge      30.39268719      24.51460514      12.96598791       0.00201475      -0.00293921      -0.00179208      -4.51827732 F F F      -0.03152593       0.18262345      -0.00450758
Ge      28.77438169      25.94257676      14.28198477       0.00050012      -0.00028890      -0.00074956      -4.49988048 F F F       0.12931207      -0.18168991       0.64679713
Ge      30.12205160      27.40973796      15.83029596       0.00103764      -0.00130025       0.00208327      -4.46073451 F F F       0.80702413      -0.22863237      -0.28672605
Ge      31.82460818      23.04035345      14.46646183      -0.00029566       0.00191998       0.00258330      -4.44457761 F F F      -0.85571402       0.05323652      -0.40733178
Ge      33.24119386      24.38190197      15.85807780      -0.00115823       0.00172708       0.00085392      -4.46131268 F F F       0.56772751       0.60120835       0.34048273
Ge      31.82884467      26.08955110      11.53108215       0.00088690      -0.00327258      -0.00152556      -4.48277549 F F F      -0.44852082      -0.31704369       0.68638659
Ge      33.33676364      27.43274894      13.00510687      -0.00031875      -0.00010778       0.00234440      -4.46983498 F F F      -1.15034666       0.19362378       0.13719890
Ge      28.74267664      23.04413035      17.24021331       0.00066891      -0.00112351      -0.00071973      -4.49044255 F F F      -0.07609460       0.69047785      -0.00518576
Ge      30.27542058      24.52863959      18.63443345       0.00080039      -0.00179346       0.00217494      -4.48297702 F F F       0.40929148      -0.17436523       0.13515550
Ge      29.09041423      26.08097250      20.19280600      -0.00080970       0.00142927       0.00234653      -4.45958718 F F F      -0.78873357      -0.33422033      -0.11049744
Ge      30.32922952      27.54004653      21.76037634      -0.00198874       0.00021326       0.00184485      -4.47283510 F F F       0.28746889       0.17187147      -0.21175531
Ge      31.63645366      23.09526271      20.27227381      -0.00133316       0.00182394       0.00026792      -4.48736857 F F F       0.51616645       0.30829321      -0.60827726
Ge      33.17353178      24.63789210      21.64389093      -0.00001743      -0.00360326       0.00265984      -4.50282240 F F F      -0.10844585      -0.21680803       0.01359367
Ge      31.78891859      25.90991446      17.10734089      -0.00244890       0.00137436      -0.00048668      -4.48329831 F F F      -0.58779956       0.45018433       0.78400429
Ge      33.23026371      27.43661499      18.63383443       0.00267387      -0.00141185      -0.00006924      -4.44096083 F F F      -0.34216872      -1.05792759      -0.20432669
Ge      28.68672471      23.17311386      23.08197861      -0.00017618      -0.00270651       0.00015962      -4.47183417 F F F       0.79539538       0.51553745      -0.33194807
Ge      30.36471592      24.65512079      24.41629350       0.00267006       0.00028000      -0.00205274      -4.48166303 F F F      -0.54425636       0.03337273       0.39888188
Ge      28.88874878      26.12897451      25.94635870       0.00121025      -0.00003819      -0.00112254      -4.51093166 F F F       0.46914484      -0.24650294      -0.05310194
Ge      30.33144840      27.56098600      27.44728889       0.00030221      -0.00139954       0.00319555      -4.50808918 F F F       0.12112537      -0.32911817      -0.19152311
Ge      31.80858414      23.29841743      25.92668031       0.00289492      -0.00026945      -0.00132279      -4.50724376 F F F       0.05646760      -0.04371883       0.44306710
Ge      33.34643578      24.77758684      27.40264376       0.00091385      -0.00109500      -0.00098405      -4.42201616 F F F      -1.66734626      -0.24730846       0.14247042
Ge      31.88457920      26.19693443      23.17093848      -0.00090713       0.00041167       0.00062332      -4.46063084 F F F      -0.49084182      -0.66033027      -0.69678660
Ge      33.25088991      27.65647915      24.52946782      -0.00034331       0.00198116      -0.00054454      -4.44872711 F F F      -0.43684614       0.43204608       0.36246708
Ge      28.90986623      23.24960586      28.83875591       0.00345335      -0.00112660       0.00021671      -4.52973452 F F F      -0.14347139       0.11320978      -0.14459557
Ge      30.42629989      24.66111628      30.22222703       0.00079941       0.00179645       0.00039215      -4.45540293 F F F      -0.83293833       0.18336000       0.15947508
Ge      28.95384318      26.05122185      31.72879383      -0.00200683      -0.00016115      -0.00189594      -4.50258459 F F F      -0.45457265       0.22100707       0.29684424
Ge      30.27099072      27.55033910      33.31133996       0.00005432       0.00243077      -0.00041009      -4.44334162 F F F      -0.59554382       0.76080796      -0.95940160
Ge      31.78292473      23.26066830      31.63177491      -0.00080895       0.00080336       0.00015142      -4.46716735 F F F      -0.31575341      -0.65565055       0.36345525
Ge      33.25430250      24.60987898      33.00020786       0.00284891      -0.00091733      -0.00139086      -4.42674021 F F F      -0.98590894       0.34311338       0.87395882
Ge      31.81792103      26.19596062      28.97126014      -0.00011271       0.00166927      -0.00002253      -4.50300497 F F F       0.45058550      -0.00551198      -0.86236602
Ge      33.17195336      27.55712508      30.55770016      -0.00050362       0.00004901       0.00002438      -4.47186656 F F F      -0.17519062       0.57724724      -0.95106659
Ge      28.82395111      23.16996009      34.50886615      -0.00091784      -0.00009395      -0.00314700      -4.44672669 F F F      -0.49235415       0.33048018       0.48521640
Ge      30.27394983      24.50814854      35.94763586      -0.00077539      -0.00026344       0.00001553      -4.48966183 F F F       0.48624420       0.73421502       0.30004252
Ge      28.88695857      26.06828460      37.45887244       0.00020618      -0.00037454       0.00157051      -4.48719472 F F F       0.43299245      -0.95718760       0.38338450
Ge      30.41265793      27.32452385      39.01643830      -0.00044059      -0.00451120      -0.00028068      -4.48603401 F F F      -0.45788446       0.89859019      -0.46256167
Ge      31.80631221      23.00898029      37.30836821      -0.00141453      -0.00038265      -0.00063310      -4.49344785 F F F      -0.08638901       0.43507508       0.18385806
Ge      33.12191851      24.53901715      38.99653719       0.00289127      -0.00135978      -0.00015298      -4.44070691 F F F      -0.22075773      -0.07724441      -0.99484616
Ge      31.73372273      26.09727962      34.49042680       0.00034150      -0.00042696       0.00180086      -4.46631073 F F F       0.55361280      -1.13540604       0.82374319
Ge      33.17902426      27.39575045      36.10004921       0.00067830      -0.00137780       0.00056015      -4.47826188 F F F      -0.14659992       0.46235967      -0.38445178
Ge      28.88649305      23.07750656      40.36538317      -0.00002259      -0.00281376       0.00053535      -4.47935870 F F F      -0.16450182      -0.48704649      -0.04964157
Ge      30.28877030      24.49817418      41.79903020       0.00257762       0.00035469       0.00047922      -4.50057161 F F F       0.52849035       0.42828013       0.40776342
Ge      28.96289515      26.06290821      43.29476356       0.00494531      -0.00144985       0.00362722      -4.49423670 F F F       0.30980182      -0.60844958       0.00687262
Ge      30.53871371      27.38158184      44.70414802      -0.00326558       0.00267356       0.00219113      -4.48911422 F F F      -0.91204674       0.42270847       0.14767833
Ge      31.79065502      22.99966686      43.19867947      -0.00222221      -0.00012540      -0.00006830      -4.46122188 F F F      -0.46934120       1.18538836       0.66169556
Ge      33.30043915      24.50054995      44.71248746       0.00126270       0.00177241      -0.00078219      -4.46673994 F F F      -0.59222028      -0.73510767      -0.17009208
Ge      31.85313569      26.02689805      40.46920876      -0.00009000       0.00084755      -0.00062373      -4.46503552 F F F      -0.19587274      -0.32690612       0.52010954
Ge      33.34056904      27.52944142      41.88173668      -0.00156861       0.00030631       0.00132134      -4.49878652 F F F       0.11325500      -0.77589809      -0.24749046
Ge      28.97026492      28.87196765      46.14629296      -0.00088547      -0.00003171      -0.00044994      -4.48337600 F F F       0.25320269      -0.50907807      -0.61563705
Ge      30.44898628      30.18539454       1.38973474       0.00026475      -0.00094350       0.00034293      -4.49376945 F F F      -0.32426575       0.46515456       0.67606605
Ge      28.84759627      31.60514227       2.82723189      -0.00204956      -0.00346362       0.00026426      -4.50883541 F F F       0.34869757       0.26124769      -0.01229186
Ge      30.32773803      33.13090542       4.22215782       0.00161861      -0.00313982       0.00190364      -4.46602119 F F F      -0.57527326       0.13828045       0.36609605
Ge      31.86481218      28.77583816       2.91424717      -0.00037290      -0.00092377       0.00030358      -4.46085511 F F F      -0.77718582      -0.51066682      -0.86084024
Ge      33.13158179      30.29392451       4.22774450       0.00280257      -0.00184033       0.00011048      -4.43004846 F F F       0.34167321       0.16532751       1.34078052
Ge      31.74869001      31.72568221      46.14199630       0.00050112      -0.00031594      -0.00050402      -4.47874655 F F F      -0.10428286      -0.32721351      -0.76061836
Ge      33.15673842      33.18803333       1.27385486      -0.00478718      -0.00280317      -0.00041716      -4.48246771 F F F       0.42697175       0.30042897       0.63834365
Ge      28.78433069      28.89717673       5.80841664       0.00048225       0.00080577       0.00193564      -4.43338210 F F F       1.00625385      -0.92010046       0.06796260
Ge      30.24832480      30.23698664       7.25320762      -0.00021675      -0.00156333      -0.00139794      -4.49167404 F F F       0.76875428      -0.09047508      -0.02202858
Ge      28.80873308      31.64548855       8.60922910       0.00301370      -0.00082863      -0.00041569      -4.47089841 F F F      -0.55312628       0.57030896       0.21172873
Ge      30.13472114      33.05531033      10.20590748      -0.00392173       0.00009967      -0.00117774      -4.44292488 F F F       0.16275374       0.06885585      -0.87594906
Ge      31.82199595      28.84388664       8.75381084      -0.00037300      -0.00306222      -0.00064111      -4.48646551 F F F      -0.87283778       0.04880255      -0.27194250
Ge      33.20985499      30.27731550      10.15601319       0.00152774       0.00120430       0.00002955      -4.48516200 F F F      -0.33869377       1.07291583       0.00838218
Ge      31.70209238      31.69188441       5.80111036      -0.00102535       0.00151789       0.00440972      -4.49365427 F F F      -0.33324476      -0.32733005      -0.60709474
Ge      32.99450462      33.13532479       7.26709973      -0.00195537       0.00380541       0.00019452      -4.47054016 F F F       0.57741488       0.21616102       0.17531940
Ge      28.73697285      28.92588195      11.51729871       0.00148856       0.00057791      -0.00193016      -4.48198440 F F F       0.36985014       0.48434409       0.21411846
Ge      30.29635761      30.30704026      12.95916589       0.00023573       0.00120145      -0.00004827      -4.48329263 F F F      -0.52151848      -0.34174638       0.41680292
Ge      28.85030693      31.83234557      14.36173586      -0.00113893      -0.00119019      -0.00329317      -4.50029716 F F F      -0.16299736      -0.28276206       0.62301090
Ge      30.25067685      33.23445844      16.02407390      -0.00005450       0.00234441       0.00121358      -4.47375279 F F F      -0.22993929      -0.19512377      -0.59100663
Ge      31.69658520      28.83586593      14.42457487       0.00048236       0.00223839      -0.00120436      -4.49884661 F F F       0.17058233       0.01818880      -0.14687584
Ge      33.12812738      30.49811142      15.73513046       0.00158430      -0.00233203      -0.00249202      -4.50451099 F F F      -0.15794598      -0.64931476       0.44354258
Ge      31.65494287      31.79261428      11.62989880       0.00045165      -0.00090620       0.00085119      -4.45312810 F F F       1.08865939      -0.49173177      -0.37965478
Ge      33.27116354      33.10979445      13.03611049       0.00104779      -0.00029269      -0.00011532      -4.49109665 F F F      -0.35231083       0.72466686      -0.27331765
Ge      28.93616016      29.01678896      17.26028815       0.00008707      -0.00014878      -0.00104541      -4.46582897 F F F      -0.78238759      -0.07753505       0.29467351
Ge      30.52716015      30.33168936      18.76792821      -0.00001034       0.00081034      -0.00174920      -4.46620373 F F F      -1.04320778      -0.48991419       0.11842298
Ge      28.91769710      31.72483064      20.12415299       0.00093917       0.00029969       0.00180726      -4.49616167 F F F       0.42895371      -0.10572962       0.64845839
Ge      30.30315478      33.31795434      21.61312865       0.00250383      -0.00126625      -0.00255917      -4.49494826 F F F       0.56058474      -0.65878341      -0.13625266
Ge      31.81889296      28.72115315      20.11183594      -0.00277734       0.00173223      -0.00046196      -4.44739246 F F F      -0.22964597       0.83286731       0.97058114
Ge      33.16793318      30.37456517      21.57404667      -0.00365390      -0.00157232       0.00022297      -4.46556725 F F F       0.57806900      -0.39516897       0.24262168
Ge      31.74395998      31.83202734      17.35070311       0.00097919       0.00141135       0.00330303      -4.45416723 F F F       0.42579621      -0.03195326      -0.50197082
Ge      33.13445238      33.24358281      18.79914627       0.00075992       0.00090086       0.00364504      -4.45527337 F F F       0.46145213       0.57075143      -0.35225509
Ge      28.92143422      29.07563228      23.17381196       0.00136034      -0.00357447      -0.00314247      -4.50151602 F F F      -0.02360393      -0.09780335      -0.21548209
Ge      30.40414499      30.57961749      24.58161321      -0.00004882      -0.00084654      -0.00255760      -4.50970908 F F F      -0.06163204      -0.39607290       0.10959306
Ge      28.84472512      31.87835819      26.05310987      -0.00209000       0.00072125       0.00135487      -4.49802699 F F F       0.28122376       0.40317243      -0.54855235
Ge      30.23591604      33.37467626      27.54206888       0.00265595      -0.00295188      -0.00022190      -4.48328395 F F F       0.10534305       0.17841754      -0.70803105
Ge      31.77497064      29.04548223      26.07526368       0.00091982      -0.00401393      -0.00055711      -4.51801522 F F F      -0.00761340      -0.04717647      -0.47143635
Ge      33.23758805      30.38592566      27.55752485       0.00454554      -0.00328736       0.00018124      -4.50181346 F F F      -0.08436704       0.47757902      -0.23416725
Ge      31.92284061      31.93093927      23.12856229       0.00050217      -0.00094452      -0.00079312      -4.44712075 F F F      -0.94314601      -0.17538116      -0.50838947
Ge      33.13529228      33.33961536      24.71972835       0.00307399      -0.00189314       0.00209041      -4.44537323 F F F       0.38631368      -0.01563297       0.03531558
Ge      28.80426059      28.97745347      28.74494402       0.00180008       0.00143923      -0.00076632      -4.41727860 F F F       0.75047469      -0.36500975       0.71259980
Ge      30.23465934      30.47062978      30.13493115       0.00313252       0.00238131       0.00065471      -4.51880786 F F F       0.04553875       0.11154667       0.64201674
Ge      28.74011699      31.80457276      31.73463625       0.00027204       0.00133702      -0.00104951      -4.50710494 F F F       0.56386965       0.13269607      -0.32516307
Ge      30.26577830      33.20284732      33.18812912       0.00012861      -0.00196923      -0.00353714      -4.49420170 F F F      -0.02032854       0.19128143      -0.10525942
Ge      31.61230191      29.06773390      31.74591028      -0.00227702      -0.00155429       0.00072222      -4.47813844 F F F      -0.40997895      -0.41012450      -0.06550093
Ge      33.14045384      30.38305973      33.09665155      -0.00384297       0.00145804      -0.00008099      -4.49027014 F F F       0.42905816       0.19735103       0.60787460
Ge      31.75166026      31.97681813      28.81578459       0.00036783       0.00037774      -0.00112251      -4.47545078 F F F       0.37354739      -0.45225120       0.67584137
Ge      33.20223765      33.39423311      30.35863661       0.00062030       0.00143596      -0.00222346      -4.50419962 F F F      -0.21730499      -0.50686291       0.07347713
Ge      28.83228851      29.08860285      34.72571006      -0.00193057      -0.00114989       0.00215795      -4.50782008 F F F       0.40332295      -0.60778282       0.03351564
Ge      30.44388977      30.46906460      36.11843869       0.00030364       0.00457675       0.00070384      -4.49598121 F F F      -0.49902356      -0.25363296      -0.22491016
Ge      28.96864227      31.81255842      37.59985553       0.00115295       0.00027387      -0.00027498      -4.48253229 F F F       0.38759566       0.40438228      -0.23667335
Ge      30.61242745      33.22404811      38.96423009      -0.00068402       0.00086854       0.00171100      -4.47407999 F F F      -0.91456417      -0.23066986       0.42964358
Ge      31.75895586      28.89279813      37.51825803      -0.00193986      -0.00293334      -0.00225095      -4.50266806 F F F       0.09578120      -0.12367791       0.18604318
Ge      33.31228996      30.37660762      38.85292781       0.00264693       0.00014474      -0.00217856      -4.46713254 F F F       0.08823327      -0.19529379      -0.12893552
Ge      31.82772900      31.88134598      34.60431083      -0.00077650      -0.00032899      -0.00040518      -4.50344104 F F F      -0.01135653      -0.12965120       0.26808708
Ge      33.19634309      33.29387819      36.17566894      -0.00022003       0.00101159      -0.00247423      -4.46717694 F F F       0.75284670      -0.35527654      -0.87243664
Ge      28.94214681      28.85177592      40.42839598       0.00255337      -0.00232707      -0.00024543      -4.49267746 F F F       0.59233851      -0.29741218      -0.10217132
Ge      30.38058686      30.28487460      41.87098828       0.00127757      -0.00375529      -0.00126063      -4.48160970 F F F       0.87530281       0.03571248      -0.46095979
Ge      28.89213206      31.72192930      43.14437107      -0.00129772       0.00351036      -0.00045969      -4.47815734 F F F      -0.66034533       0.58486556       0.36430753
Ge      30.13328958      33.17755340      44.79084640       0.00214978       0.00087880       0.00058714      -4.49219967 F F F       0.24914911      -0.24019185       0.06261110
Ge      31.91130450      28.85173896      43.30791865       0.00091589      -0.00324269      -0.00095521      -4.45979485 F F F      -0.57381944       0.37924871      -0.13349814
Ge      33.30645140      30.28542562      44.70500015       0.00042719      -0.00189890      -0.00303824      -4.49634216 F F F       0.15119108       0.65782905       0.33618542
Ge      32.08420059      31.71522726      40.47987752       0.00107899      -0.00158678      -0.00158741      -4.42402977 F F F      -1.41182117       0.18732751      -0.11136978
Ge      33.12212961      33.42382902      41.89428244      -0.00087447      -0.00286715      -0.00236991      -4.46333556 F F F       0.25113541      -0.19729800       0.26386996
Ge      28.81969966      34.74196938       0.07344313      -0.00051751       0.00061661      -0.00166399      -4.47571229 F F F      -0.03037437      -0.52160750      -0.13765696
Ge      30.23666772      36.26249970       1.45910441      -0.00106578      -0.00015312      -0.00249410      -4.47412027 F F F      -0.20921118      -0.27507359      -0.13048005
Ge      28.73992815      37.57286636       2.94920778       0.00166253      -0.00299189       0.00190215      -4.51151689 F F F       0.06452203      -0.10099166       0.42338900
Ge      30.21822597      39.01963808       4.44733741       0.00282197       0.00011318       0.00067573      -4.50444330 F F F       0.41209821      -0.40034818      -0.65735195
Ge      31.63193633      34.59944923       2.62786342      -0.00021573       0.00520048      -0.00123718      -4.47337959 F F F       0.31056310       0.12445459       0.92420210
Ge      33.06459135      35.91553233       4.31639809      -0.00124848      -0.00197449      -0.00208346      -4.49508976 F F F       0.40227859       0.15941393      -0.09219827
Ge      31.64171386      37.65000624      46.15950451      -0.00173862       0.00301454       0.00091845      -4.50359480 F F F       0.18387062      -0.15141335      -0.09343055
Ge      33.09783247      38.91774761       1.51252691       0.00304307       0.00166980      -0.00175196      -4.49942430 F F F       0.73177153      -0.14445788       0.07159797
Ge      28.81378319      34.53244245       5.87775919      -0.00012945       0.00060231       0.00209090      -4.46703870 F F F      -0.06506516      -0.01131003      -0.70639668
Ge      30.25445655      36.09393174       7.27944457      -0.00070721       0.00349197      -0.00015638      -4.49374424 F F F      -0.54726090      -0.33843412       0.25513741
Ge      28.73679360      37.38544157       8.87817718       0.00032109      -0.00124545      -0.00297751      -4.40678944 F F F       1.11899861       0.58545425      -0.94840421
Ge      30.20905894      38.98627234      10.11304885      -0.00173989      -0.00196366      -0.00126976      -4.46897300 F F F       0.85634124      -0.24936683      -0.07777474
Ge      31.52282047      34.51299079       8.74499249      -0.00222524       0.00334554       0.00100872      -4.51561203 F F F       0.59833586       0.36078109       0.03464091
Ge      33.10657908      35.91184639      10.19084013       0.00008984       0.00171462       0.00217303      -4.48421904 F F F      -0.13703298      -0.08527004      -0.32042483
Ge      31.68808769      37.47683166       5.80193884      -0.00032212       0.00215018       0.00240304      -4.45998751 F F F      -0.33738132      -0.44041932      -0.81441646
Ge      33.22192276      38.75371363       7.11761204      -0.00340038      -0.00006038       0.00112683      -4.46223464 F F F       0.65820644       0.20724190       0.90440279
Ge      28.83821378      34.60065016      11.52304188      -0.00124375       0.00167780       0.00252355      -4.45459656 F F F      -1.18473656       0.00379955       0.15167639
Ge      30.26360168      35.88427399      12.99300232      -0.00125688       0.00182512       0.00276593      -4.47923377 F F F       0.57618331       0.58450439       0.67645413
Ge      28.76890606      37.37246107      14.41714816       0.00084353      -0.00058575      -0.00218440      -4.47964125 F F F       0.56163800       0.49476616      -0.69672545
Ge      30.28431094      38.79838649      15.79007949      -0.00118418       0.00070220       0.00068472      -4.49879679 F F F       0.08770007       0.35832481       0.10708936
Ge      31.80590206      34.51011268      14.59160192       0.00080336       0.00417565       0.00034294      -4.47209206 F F F      -0.21403777       0.11461584      -0.79084874
Ge      33.26815818      35.88952358      16.00130826      -0.00087340       0.00044039       0.00079739      -4.48315362 F F F      -0.29871152       0.69369532       0.30957385
Ge      31.65839522      37.41918046      11.57884537      -0.00019677      -0.00144573      -0.00021139      -4.49616495 F F F       0.12706003       0.35696218      -0.05262083
Ge      33.24713822      38.76708583      13.03634930      -0.00189528       0.00085242      -0.00204017      -4.48685369 F F F      -0.62256423       0.13721087       0.26927748
Ge      28.97999937      34.73934661      17.51311915       0.00004279      -0.00048420       0.00070132      -4.48719826 F F F      -0.48542380      -0.07094716      -0.48680824
Ge      30.40016115      36.19720639      18.89170302       0.00227755      -0.00222181       0.00033338      -4.47687912 F F F       0.37901567       0.00335233      -0.52276438
Ge      28.92793462      37.53464847      20.26819670       0.00242149       0.00032435       0.00128154      -4.48950112 F F F      -0.62945753      -0.01827001       0.43646292
Ge      30.33893296      38.82021057      21.87092742      -0.00191636      -0.00174460      -0.00029832      -4.49615543 F F F       0.36763736       0.31300358      -0.50187125
Ge      31.86650916      34.78259398      20.25684464      -0.00120477       0.00086283       0.00296987      -4.49510567 F F F      -0.48608972      -0.31666810       0.39772056
Ge      33.30866845      36.20143817      21.67585963       0.00015624      -0.00383695       0.00025113      -4.48558640 F F F       0.51096149      -0.30678726       0.00538560
Ge      31.81388469      37.57872414      17.33682500       0.00066563       0.00121414      -0.00073048      -4.50055970 F F F      -0.07072071      -0.61587449      -0.34556831
Ge      33.06655311      39.10462545      18.78346322       0.00225282       0.00054146      -0.00018757      -4.45614628 F F F       1.23251898      -0.37198502      -0.23424843
Ge      28.84664325      34.64829990      23.04929396       0.00237217       0.00178268       0.00103090      -4.44763471 F F F       0.36955037       0.25890234       0.35305311
Ge      30.32093741      36.11633687      24.47006924      -0.00194653      -0.00362523       0.00114296      -4.47280353 F F F      -0.16588693      -0.25688112       0.78193616
Ge      28.95491711      37.56055776      26.02786337       0.00038813      -0.00100180      -0.00031650      -4.48376916 F F F      -0.83373194      -0.17562737      -0.76554262
Ge      30.41766268      39.04197891      27.30546724      -0.00024437      -0.00169224       0.00144750      -4.43434491 F F F      -0.53666887       0.41412749       0.71900483
Ge      31.73420107      34.84045770      26.11813060      -0.00210826      -0.00052797       0.00046263      -4.52345513 F F F      -0.32717089      -0.27801354      -0.14059616
Ge      33.22973921      36.24922152      27.55156335       0.00282289      -0.00002297      -0.00310903      -4.45481709 F F F       0.07315828      -0.24411334      -0.75591078
Ge      31.93051870      37.49685396      23.28463665       0.00059559      -0.00023905      -0.00044298      -4.44640591 F F F      -0.23428649       0.30281931      -0.64783686
Ge      33.24951980      39.02879370      24.67648831       0.00058860      -0.00218025      -0.00135993      -4.49580923 F F F       0.34716054       0.12230970      -0.21436296
Ge      28.88268995      34.84908134      28.97107158      -0.00199701       0.00371895       0.00140489      -4.47855446 F F F      -0.12412966       0.19522510      -0.19237329
Ge      30.27992807      36.29768509      30.44141677      -0.00358897      -0.00000533      -0.00381572      -4.48842050 F F F       0.78949267      -0.38281160      -0.70118565
Ge      28.88345534      37.72704235      31.77625604       0.00177283      -0.00128003      -0.00148477      -4.47379675 F F F      -0.58736270       0.48628617       0.42348340
Ge      30.42103544      39.12119124      33.22366742      -0.00100780       0.00082891       0.00197046      -4.49110754 F F F       0.62611312      -0.43856005      -0.61200405
Ge      31.73170233      34.75601264      31.86548916      -0.00189735       0.00133632      -0.00084682      -4.48933645 F F F      -0.32576479      -0.05339647      -0.55403020
Ge      33.20458968      36.22059932      33.14728838       0.00049185       0.00030908      -0.00023930      -4.48360517 F F F       0.26729829      -0.32818787       0.88445662
Ge      31.76661438      37.69830040      28.82694904       0.00028723       0.00185019       0.00053447      -4.48601643 F F F       0.08743491       0.00836030       1.20710915
Ge      33.32453427      39.11684102      30.30424186      -0.00230392       0.00137838      -0.00032472      -4.49578015 F F F      -0.51173846       0.23568243      -0.20692843
Ge      28.83289069      34.69818045      34.57304056      -0.00065127       0.00029403      -0.00146527      -4.51383492 F F F      -0.19607107       0.14474323       0.03814568
Ge      30.25487777      36.20699056      35.97477718      -0.00336718       0.00003147      -0.00021877      -4.42992518 F F F       0.27552543      -1.02024291      -0.04042128
Ge      28.92607503      37.54867121      37.43143837      -0.00064278      -0.00044782      -0.00185277      -4.47139484 F F F      -0.07953998       0.82730702       1.01374760
Ge      30.39702724      39.11536576      38.93379746       0.00218728      -0.00056816      -0.00022999      -4.47090625 F F F      -0.56519352      -0.59366167      -0.48526227
Ge      31.75972751      34.78358822      37.40673540       0.00032671       0.00005305       0.00052636      -4.45378621 F F F      -0.38183668       0.33486284       0.45448023
Ge      33.07441828      36.30720918      38.87220167      -0.00029120       0.00014079      -0.00007736      -4.50601806 F F F       0.31975193      -0.28812109       0.31377097
Ge      31.79538367      37.58634941      34.72849088       0.00078310       0.00097812      -0.00332365      -4.48762110 F F F       0.46367705       0.72761797      -0.73126909
Ge      33.38303961      39.06427994      36.03460431      -0.00092167       0.00063221       0.00118274      -4.48022022 F F F      -1.00342448       0.06240269       0.51211427
Ge      28.84681206      34.55630164      40.35872128       0.00189715       0.00162480      -0.00270211      -4.44608367 F F F       1.21704209       0.37602892      -0.12177875
Ge      30.36853446      36.11682874      41.75966500      -0.00159477       0.00153161      -0.00042438      -4.43721606 F F F      -0.44379336      -0.63960048      -0.13341471
Ge      29.00633813      37.49582473      43.19846313       0.00019318       0.00089447       0.00104464      -4.49116921 F F F      -1.05130481       0.28693842       0.42229709
Ge      30.23442198      39.07139059      44.69176109      -0.00290955      -0.00072458       0.00004775      -4.48156257 F F F       0.16140958      -0.31877839      -0.03657831
Ge      31.53029406      34.65638927      43.39956813      -0.00062948       0.00128027       0.00017904      -4.48705209 F F F       0.71270579       0.06464200      -0.19117604
Ge      33.06039986      36.10037890      44.78915067      -0.00061984       0.00213920       0.00156659      -4.46905892 F F F      -0.46542134       0.20430762      -0.42367539
Ge      31.70068465      37.69618824      40.43385712      -0.00109262       0.00222476       0.00251504      -4.45875208 F F F       0.52828294      -0.26581510      -0.43168458
Ge      33.33580428      38.98480120      41.75700550       0.00031610       0.00423609      -0.00185603      -4.48906240 F F F       0.00460844      -0.25431922       0.54963860
Ge      28.75465293      40.37699163       0.01004004      -0.00003828       0.00116691       0.00181709      -4.47890352 F F F       0.12316811       0.45212216      -0.10316718
Ge      30.43285275      41.75182086       1.41568323       0.00149070       0.00323708       0.00151839      -4.47177196 F F F      -0.44192064       0.18263678      -0.54243663
Ge      28.92782776      43.14785366       2.77939366      -0.00124680      -0.00120666      -0.00113469      -4.47029681 F F F       0.18053902       1.09720932       0.20899489
Ge      30.32385435      44.85053499       4.24701717      -0.00001122       0.00089188      -0.00147961      -4.48586659 F F F      -0.29806985      -0.74513933      -0.14310138
Ge      31.79988119      40.41448748       2.95320697       0.00008145       0.00363155       0.00158111      -4.46308399 F F F      -0.52708272      -0.46681145       0.40236020
Ge      33.21320984      41.80960227       4.38236803       0.00090313      -0.00011088      -0.00170134      -4.49688233 F F F       0.38904139       0.78707630      -0.15354455
Ge      31.76291854      43.31863739      46.09351541      -0.00094106       0.00204888      -0.00000277      -4.49781885 F F F       0.68276302      -0.32756361       0.45001441
Ge      33.44440095      44.63401210       1.30940801       0.00216143       0.00013896       0.00150846      -4.42069111 F F F      -1.50153027       0.50519090       0.43326447
Ge      28.93423003      40.39032180       5.98583445      -0.00139608       0.00298342      -0.00039015      -4.48052057 F F F      -0.13267999       0.66557123      -0.10873552
Ge      30.47915600      41.91925697       7.26678069       0.00045606       0.00041297      -0.00143351      -4.48248436 F F F      -0.19165984      -0.04334462      -0.22614508
Ge      28.77014496      43.21284789       8.59684254       0.00018076       0.00075606      -0.00055808      -4.45687507 F F F       0.92385620       0.63493329       0.36892008
Ge      30.21647905      44.73585673      10.19997528       0.00370063       0.00222959      -0.00002153      -4.46716756 F F F       0.38475966      -0.47445609      -1.30440196
Ge      31.96335529      40.34784940       8.56478908      -0.00269195      -0.00101202      -0.00019524      -4.44259711 F F F      -1.01014412      -0.35578497       0.49314226
Ge      33.22297825      41.71349825      10.16880315       0.00186042       0.00060955       0.00135620      -4.46627658 F F F       0.40538745       0.44822568      -0.20142176
Ge      31.79410652      43.47580552       5.73011082       0.00229161      -0.00134879      -0.00044644      -4.47718648 F F F      -0.31534885      -0.89849355      -0.23042170
Ge      33.22320812      44.72510148       7.22993842      -0.00172093      -0.00144033       0.00302644      -4.45486079 F F F       0.03774159       0.74072251      -0.12404587
Ge      28.84712900      40.34898208      11.68321487      -0.00047168      -0.00016209       0.00097068      -4.48757564 F F F       0.15845560       0.48894873      -0.27338649
Ge      30.29451438      41.84560435      13.05753199      -0.00226372      -0.00271469       0.00352004      -4.49012618 F F F      -0.32188499      -0.22948620       0.10929309
Ge      28.76229445      43.32796889      14.40170656       0.00092453       0.00107599      -0.00018134      -4.48526448 F F F       0.74328453       0.09009664      -0.35165502
Ge      30.27578297      44.68184034      15.85767803      -0.00116608      -0.00186396       0.00073153      -4.46784167 F F F      -0.08505081      -0.18445557       0.34987709
Ge      31.73226865      40.36076936      14.43554651       0.00031395      -0.00145584      -0.00145442      -4.49213529 F F F       0.37632207      -0.47936879      -0.11780037
Ge      33.25101542      41.81135528      15.81803174       0.00302608      -0.00095758       0.00097688      -4.45014624 F F F       0.04797066      -0.39648120       0.41352658
Ge      31.63298081      43.16086642      11.50680566       0.00243113      -0.00106904       0.00221855      -4.47206893 F F F       0.68995617       0.44951562       0.02087018
Ge      33.13668190      44.68850005      12.93946118      -0.00502786       0.00153182       0.00011730      -4.49211779 F F F       0.20455758      -0.37720087       0.31954695
Ge      28.90906507      40.32794538      17.21714777       0.00482989       0.00075113       0.00224992      -4.50374915 F F F      -0.11351576       0.14626787       0.08415650
Ge      30.42068047      41.70934674      18.62591135      -0.00485003      -0.00241851      -0.00127400      -4.45715390 F F F      -0.52922050       1.09472079       0.17513264
Ge      28.77185912      43.32163887      20.01435949      -0.00059873       0.00185358      -0.00354117      -4.45050364 F F F       0.95267634      -0.71145080       0.37484813
Ge      30.30848228      44.70394238      21.55095782       0.00010855       0.00031434      -0.00167860      -4.45925221 F F F       0.38735855      -0.56135596       0.00534880
Ge      31.62671042      40.33347065      20.30283873       0.00327110      -0.00130375      -0.00139234      -4.43922814 F F F       0.05194709       0.17253255       0.25049418
Ge      33.22224351      41.74702451      21.60286434       0.00136915       0.00105942      -0.00208843      -4.48730497 F F F      -0.21769816       0.30235246       0.62814817
Ge      31.90104939      43.31008392      17.21601997       0.00169348       0.00041946      -0.00290480      -4.48195102 F F F      -0.78288475      -0.37786472       0.60921730
Ge      33.21637989      44.68838028      18.83673254      -0.00305994       0.00121233      -0.00021590      -4.49051003 F F F      -0.10939186       0.26945459       0.24144131
Ge      28.98655272      40.41811255      23.14597053       0.00140581       0.00167200      -0.00156987      -4.43592167 F F F      -1.19598009      -0.18333191      -0.54424063
Ge      30.26434832      41.90935204      24.51492287      -0.00044380       0.00454814      -0.00181122      -4.42626485 F F F       0.51767085       0.55809435       0.46939406
Ge      29.09555755      43.48170137      26.08879957       0.00209078       0.00132024      -0.00087443      -4.48785673 F F F      -1.02660702      -0.03140546      -0.59455800
Ge      30.34902316      45.01683990      27.58562352      -0.00016685       0.00065709       0.00071591      -4.40005178 F F F       0.57970322      -1.40399770      -0.12601534
Ge      31.73260929      40.55002202      25.94403104      -0.00055990      -0.00231867      -0.00221203      -4.47772371 F F F       0.62213929       0.11606629      -0.05475873
Ge      33.18966739      42.04548825      27.35739740       0.00255226      -0.00183998      -0.00111983      -4.50000463 F F F       0.45343670      -0.27133879       0.47214050
Ge      31.80397364      43.25658393      23.11793378       0.00262320      -0.00087087       0.00013663      -4.51332460 F F F       0.03202571       0.16852290      -0.48211107
Ge      33.19537041      44.75616529      24.64535068       0.00232307       0.00001768       0.00035160      -4.44088849 F F F      -0.74707543       0.41123283      -0.66599195
Ge      29.06277124      40.60780262      28.83227348      -0.00005692       0.00070431       0.00027372      -4.46493954 F F F      -1.15356082      -0.66450620      -0.51174619
Ge      30.35257157      41.96784326      30.32897362      -0.00318304      -0.00049978      -0.00194403      -4.43417345 F F F       0.42028870       0.43402543       0.22500072
Ge      28.83665663      43.31342477      31.75757708       0.00182777      -0.00121700      -0.00055347      -4.52501066 F F F      -0.21113897       0.46520587       0.22039609
Ge      30.33164314      44.76660396      33.25069143      -0.00189454      -0.00146807       0.00234678      -4.48232646 F F F      -0.31693048       0.10413785      -0.31671876
Ge      31.89362010      40.65428266      31.75454655       0.00159319      -0.00219456       0.00137448      -4.50837584 F F F       0.03556657      -0.65540117       0.31849728
Ge      33.35241182      42.05171003      33.27029364       0.00024606      -0.00014194      -0.00314418      -4.51056862 F F F      -0.45703322      -0.50088350       0.43806410
Ge      31.81642649      43.41740762      28.93599486      -0.00155812       0.00148603       0.00102152      -4.52649882 F F F      -0.14126165       0.25833340      -0.19877967
Ge      33.29088664      44.82760792      30.37563824      -0.00036671       0.00029507      -0.00095319      -4.50570557 F F F      -0.17951162       0.07248478      -0.05618743
Ge      28.99451386      40.52416973      34.54367538       0.00037703      -0.00178730       0.00113119      -4.45229934 F F F      -0.14636185       0.32590756       0.82115578
Ge      30.35846056      41.98546849      36.08890405       0.00260088      -0.00196090      -0.00317838      -4.51200296 F F F       0.02291835      -0.49002471       0.28196887
Ge      28.83122733      43.23898342      37.59302525       0.00074128      -0.00094423      -0.00084167      -4.49767791 F F F      -0.16142198       0.14352235      -0.17112392
Ge      30.21435847      44.75113591      38.97666566      -0.00115880      -0.00197081      -0.00079390      -4.50448279 F F F       0.33338750      -0.01796078       0.04227268
Ge      31.87056519      40.55324875      37.57226542      -0.00087525      -0.00200729       0.00132021      -4.49978350 F F F      -0.07399099      -0.26937203      -0.79970743
Ge      33.18420159      42.01284911      39.01689924       0.00245665      -0.00027099       0.00093931      -4.42707297 F F F       1.14925954      -0.25244943      -0.98154610
Ge      31.78196016      43.47645556      34.76218324       0.00316146      -0.00205308       0.00139361      -4.48869321 F F F       0.56939385      -0.24369929      -0.55786760
Ge      33.18696959      45.06559556      36.06062555      -0.00121612       0.00115882       0.00295070      -4.43778666 F F F      -0.45172620      -0.51233092       0.11817928
Ge      28.93785268      40.35759454      40.46550246      -0.00152772       0.00234417      -0.00069736      -4.47461349 F F F      -0.62958234       0.48971419      -0.50576119
Ge      30.43788967      41.76300487      41.78896300       0.00240601       0.00044515       0.00167265      -4.49091767 F F F       0.12985165       0.69337165      -0.08614908
Ge      29.05201779      43.19245952      43.28386555      -0.00215242       0.00165053       0.00063335      -4.44765191 F F F      -0.25327070       0.97913956      -0.74290321
Ge      30.42184471      44.77708954      44.67333989       0.00289907       0.00081026       0.00006934      -4.46708462 F F F       0.10531060      -0.01289666      -0.55803566
Ge      31.82631928      40.32240747      43.21331290      -0.00153047       0.00187045       0.00165796      -4.49717137 F F F       0.32719110       0.31670613       0.44516318
Ge      33.26244929      41.85041779      44.68934465      -0.00217118      -0.00257892      -0.00055475      -4.46865945 F F F      -1.08649823      -0.77640811       0.63168222
Ge      31.82111909      43.38422033      40.36158715      -0.00147839      -0.00187026       0.00379494      -4.45244501 F F F      -0.85955203       0.33135031       0.94294951
Ge      33.29659488      44.68124721      41.92614591       0.00131175      -0.00110201      -0.00132153      -4.51398867 F F F      -0.23289910       0.57207670      -0.38876247
Ge      34.79810059      46.13748769      46.14891121       0.00161426      -0.00178662       0.00107687      -4.47224791 F F F       0.18851825       0.73658618       0.11347031
Ge      36.13927857       1.51288811       1.59028235       0.00060366       0.00206700       0.00425112      -4.48624550 F F F      -0.37254255      -0.28215222      -0.96082689
Ge      34.55565776       2.98920831       2.79761209       0.00057860       0.00255189       0.00123207      -4.35522998 F F F      -0.53999100      -0.78989093      -1.11802989
Ge      35.88091939       4.18824303       4.24394172       0.00118627      -0.00325206      -0.00038084      -4.40303787 F F F       1.31422915       1.62882343       0.80910866
Ge      37.45390017      46.14891289       2.94354674       0.00200852      -0.00067385      -0.00048900      -4.49730091 F F F       0.56399604      -0.52283154      -0.02141238
Ge      38.95662803       1.35806506       4.35357704      -0.00315365      -0.00283818       0.00225623      -4.44116079 F F F      -0.81632930       0.19668603      -0.19600687
Ge      37.56730957       2.94545227       0.09226890       0.00025554       0.00296011      -0.00150049      -4.48701501 F F F      -0.07843999      -0.50849096       0.06441843
Ge      38.89779790       4.48233779       1.46206492      -0.00032502       0.00221587       0.00145194      -4.44964189 F F F       0.23992606      -0.49318956       0.23254761
Ge      34.64420038       0.02363792       5.72665871       0.00038254      -0.00176755       0.00024835      -4.51090581 F F F      -0.23800806      -0.51883798      -0.21388523
Ge      36.05003712       1.44724332       7.12661781       0.00136470      -0.00212030      -0.00023680      -4.44950580 F F F       0.31195212      -0.47041335       0.61930163
Ge      34.71650030       2.73337021       8.75098691       0.00301813       0.00197851       0.00218364      -4.47660414 F F F      -0.16953061       1.08291057      -0.16826917
Ge      36.12137611       4.39515643      10.14757517       0.00302374      -0.00068166      -0.00155136      -4.51651283 F F F      -0.02908981      -0.62507099      -0.33703446
Ge      37.44861574       0.00426498       8.69394253      -0.00187576      -0.00036358       0.00317950      -4.52046850 F F F      -0.13274456      -0.19222246      -0.10952066
Ge      38.92296030       1.47108899      10.09791552      -0.00020781      -0.00170836       0.00163296      -4.45493033 F F F       0.44235238      -0.68011374      -0.72965612
Ge      37.39180398       2.85105064       5.65114794       0.00043405       0.00072602      -0.00081558      -4.50493043 F F F       0.66547454       0.15015208       0.20378115
Ge      38.88076827       4.31806369       7.10481563       0.00097507       0.00086607      -0.00373476      -4.48845649 F F F       0.50402580      -0.23861327      -0.27648714
Ge      34.67204830       0.01583871      11.67337021      -0.00269050      -0.00347153      -0.00323683      -4.47392566 F F F      -0.54338925      -0.41729891      -0.57314145
Ge      36.11747380       1.39266107      13.06269708      -0.00159583       0.00048361       0.00190084      -4.49902037 F F F       0.73076782       0.11275662       0.38063572
Ge      34.69571103       2.92171069      14.45597506       0.00130627      -0.00021533      -0.00248997      -4.49658194 F F F       0.11739301      -0.11166356       0.22624280
Ge      36.15177859       4.30240745      16.00429481      -0.00041139       0.00194909       0.00042176      -4.48861079 F F F       0.06762225      -0.11195301      -0.28090437
Ge      37.59444360      46.00814208      14.53931438       0.00171042       0.00057253      -0.00095943      -4.49171988 F F F      -0.10468966       0.58695288      -0.62171058
Ge      39.09593125       1.35219701      15.81177541      -0.00065995      -0.00156984      -0.00175689      -4.48032479 F F F      -0.28691192      -0.02537710       0.24083782
Ge      37.59747922       2.81523126      11.53304901       0.00229376      -0.00057964       0.00519601      -4.45762257 F F F      -1.10773255       0.53303434       0.34542170
Ge      38.99371445       4.26728643      12.91761648      -0.00344272       0.00002949       0.00253111      -4.48966358 F F F      -0.35117700       0.62527060       0.19516539
Ge      34.58731381       0.01151910      17.41852301       0.00106434       0.00183309       0.00246723      -4.47980581 F F F       0.72675880      -0.17635701       0.40317998
Ge      36.08727075       1.43244154      18.88931870      -0.00175754      -0.00085096      -0.00661371      -4.46026819 F F F       0.20430654      -0.45331503      -0.88132531
Ge      34.67895148       2.90956573      20.15891863       0.00030383       0.00281868       0.00055137      -4.41602473 F F F      -0.69774854      -0.40397326       0.72448597
Ge      36.10846767       4.19903628      21.58188121      -0.00026109      -0.00028158      -0.00071743      -4.45050333 F F F       0.10776893       0.31917926       0.99378063
Ge      37.56411653      46.14829351      20.18878037       0.00406174       0.00049798      -0.00276776      -4.47541150 F F F      -0.29337890       0.17919098       1.36286981
Ge      39.07501535       1.39474793      21.72083415       0.00109795      -0.00291468       0.00076906      -4.48771960 F F F      -0.35057542      -0.47351628      -0.11788149
Ge      37.65717465       2.66651353      17.38333417      -0.00119983       0.00063204       0.00011625      -4.47321714 F F F      -0.58120343       0.60655951      -0.60705553
Ge      38.98308846       4.31891035      18.62121142      -0.00246267      -0.00076682       0.00119407      -4.46711283 F F F       0.01427700      -0.41950593       0.90225456
Ge      34.64150327      46.18267280      23.21440707      -0.00166282      -0.00202447      -0.00120051      -4.47844673 F F F       0.55246812       0.42669702       0.23881923
Ge      36.20261818       1.57367612      24.57603355       0.00107730       0.00029991       0.00023825      -4.48667609 F F F      -0.33389757      -0.44677499      -0.18253854
Ge      34.70916240       3.06949812      26.00486812      -0.00184172      -0.00267924       0.00014942      -4.49393122 F F F       0.22186929      -0.55210120       0.12379877
Ge      36.16540440       4.34344482      27.53341543       0.00054443      -0.00271854      -0.00276559      -4.48941476 F F F       0.34636195       0.30656309      -0.31022807
Ge      37.71589233      46.15834104      25.83350945      -0.00128905       0.00205726       0.00021213      -4.46489147 F F F      -0.16553933       0.23573214       0.29653610
Ge      39.03571922       1.34007264      27.45913950      -0.00210801       0.00225114      -0.00230269      -4.46706797 F F F      -0.26923961       0.48792917      -0.28270813
Ge      37.69382665       2.91874738      23.09613411       0.00009840       0.00030835       0.00348751      -4.49898944 F F F      -0.52644184       0.01628727       0.16584163
Ge      39.03470805       4.34695324      24.66419641      -0.00185759       0.00041248      -0.00011694      -4.44666624 F F F      -0.17603928      -0.59266086      -0.07653417
Ge      34.76224285       0.07878740      28.96756599       0.00053082       0.00115361       0.00123703      -4.49959745 F F F      -0.06146761       0.12508517      -0.15420149
Ge      36.16884338       1.52890148      30.37988873      -0.00121892       0.00328970       0.00163303      -4.50141207 F F F       0.21843691       0.23879099      -0.04478797
Ge      34.66492958       3.03834909      31.67419678      -0.00106348       0.00209913      -0.00274690      -4.47770817 F F F      -0.57407014      -0.60461740       0.20224842
Ge      36.10534984       4.28504282      33.20849575       0.00030809      -0.00414154      -0.00013474      -4.48536581 F F F       0.27096707       0.94684444      -0.13913623
Ge      37.61193239       0.15508644      31.88493815       0.00033796      -0.00129841      -0.00222000      -4.47168071 F F F      -0.14640285      -1.05836645      -0.99289487
Ge      39.10659534       1.59970485      33.10651506      -0.00076853       0.00210042      -0.00179436      -4.35257038 F F F      -0.97246794       0.28275935       0.32679050
Ge      37.69658976       2.91218215      28.89107281       0.00424793      -0.00052262      -0.00060257      -4.51993972 F F F      -0.32996843      -0.06730668       0.27463808
Ge      39.07609348       4.43804141      30.37274231       0.00156263       0.00025070      -0.00007471      -4.47138894 F F F      -0.13913313      -0.78853113      -0.36303579
Ge      34.63466843       0.16462110      34.59971810      -0.00257250      -0.00193330      -0.00043757      -4.46213441 F F F       0.81057662      -0.17248990      -0.19629582
Ge      36.25579576       1.42927192      36.03190936       0.00088909      -0.00089528      -0.00240540      -4.47218332 F F F      -0.10720274      -0.18730104      -0.02142053
Ge      34.67523844       2.72431285      37.39009073      -0.00199117      -0.00086002      -0.00162077      -4.47843059 F F F      -0.03302501       0.15007891       0.45524587
Ge      36.14816302       4.12438465      38.81043266       0.00001201      -0.00223285       0.00078074      -4.47598456 F F F       0.20227243       0.32973892       0.60113573
Ge      37.63051247       0.00973478      37.58347533       0.00092111       0.00006194      -0.00150768      -4.50790535 F F F       0.03589727      -0.40540517      -0.14909172
Ge      39.06309653       1.35665098      39.15083860      -0.00036684      -0.00132982      -0.00239026      -4.50256199 F F F      -0.07626923      -0.04597074      -0.32884827
Ge      37.63434249       2.94744163      34.63381073       0.00064690      -0.00260706      -0.00212304      -4.47885653 F F F      -0.15989676      -0.47877191      -0.28995386
Ge      39.15288451       4.24553158      35.98925232      -0.00004020      -0.00040195       0.00026667      -4.43064578 F F F      -0.52793100       0.85419961       0.70775428
Ge      34.73237331      46.11400845      40.35069480      -0.00503278       0.00054194       0.00189573      -4.47644914 F F F      -0.64450840      -0.20121659       0.31058221
Ge      36.17206383       1.22222372      41.85689748      -0.00096300      -0.00133913      -0.00219019      -4.46977528 F F F      -0.08936248       0.31189501       0.63935088
Ge      34.77752905       2.81606384      43.31093055       0.00037383      -0.00171226      -0.00099077      -4.49244544 F F F       0.01880660       0.29924686      -0.60278779
Ge      36.14603372       4.27841859      44.80977957      -0.00446854       0.00092209       0.00036397      -4.49399307 F F F      -0.25214513       0.39887442      -0.41215043
Ge      37.72325508      46.00032241      43.27610859      -0.00139116      -0.00243928       0.00027072      -4.48589149 F F F      -0.66330216       0.37053318       0.44914104
Ge      38.94038306       1.38017426      44.88629423      -0.00016074       0.00079898       0.00383983      -4.47252645 F F F       0.04231074       0.16550759      -1.04609362
Ge      37.56116744       2.72779488      40.55786466      -0.00054921       0.00024973      -0.00084653      -4.46329335 F F F       0.19810953       0.72266336      -0.73961572
Ge      39.12646025       4.16449766      41.92354916      -0.00046543       0.00205522      -0.00098286      -4.47368911 F F F      -0.62486317       0.34755924      -0.05973262
Ge      34.60806680       5.86623269      46.05433665      -0.00004249       0.00141701      -0.00010186      -4.51915759 F F F       0.24864393      -0.14733517       0.19498825
Ge      36.00390058       7.19407584       1.48164865       0.00085511      -0.00220997      -0.00046472      -4.49253922 F F F       0.04892429       0.27586647      -0.42672159
Ge      34.56690599       8.71068443       2.86190915       0.00000721       0.00101868       0.00101056      -4.46433576 F F F       0.41019615       0.45901460      -0.82617245
Ge      36.03234283      10.12443787       4.28626525      -0.00217840      -0.00377445       0.00322598      -4.49922464 F F F       0.40502385      -0.13641894      -0.03282072
Ge      37.41592446       5.75205103       2.88966224       0.00208911      -0.00044140       0.00189527      -4.48182889 F F F      -0.00157679       0.24244501       0.87705631
Ge      39.05927818       7.22751950       4.31085837      -0.00324262      -0.00197375       0.00367362      -4.48147478 F F F      -0.44433457      -0.54939243       0.15387488
Ge      37.50238858       8.53831481      46.16684070      -0.00062545      -0.00000646       0.00074667      -4.48470999 F F F      -0.16248263       0.91541422       0.03813579
Ge      38.95347223      10.11658896       1.43049076      -0.00088376      -0.00209022      -0.00087332      -4.46983302 F F F       0.34067728      -0.46636848      -0.73053611
Ge      34.55174975       5.77772397       5.65425100       0.00243799       0.00175178       0.00201715      -4.45329900 F F F       0.63385434      -0.89700189       1.12753849
Ge      36.10418322       7.16892931       7.11270798      -0.00188458      -0.00236925       0.00091575      -4.51356412 F F F       0.21969453       0.05134397      -0.40015243
Ge      34.73102893       8.58750570       8.57651939      -0.00351977       0.00239089       0.00094653      -4.44618704 F F F      -0.36354765      -0.08863396      -0.33369368
Ge      36.13653640      10.01833562       9.88313538       0.00090441       0.00182838      -0.00171510      -4.44809649 F F F       0.36868348       0.44190323       1.22211109
Ge      37.53795131       5.74172646       8.55570939       0.00437935      -0.00338926       0.00177339      -4.46409615 F F F       0.00944284       0.28050331       0.83050267
Ge      38.99482199       7.15102055      10.18106802       0.00099635       0.00413204      -0.00459350      -4.48610933 F F F       0.06295326      -0.06308844      -0.78770112
Ge      37.56743045       8.74882129       5.71121006       0.00228481      -0.00102006       0.00173949      -4.47399975 F F F      -0.45216410      -0.86087232      -0.42959326
Ge      38.93344375      10.18684696       7.06041387      -0.00326270      -0.00122101      -0.00239652      -4.44154615 F F F       0.43050672      -0.01151669       1.02898959
Ge      34.65078088       5.81710504      11.60268470      -0.00228756       0.00204055      -0.00039244      -4.44926541 F F F       0.08652808      -0.45530946      -0.58039284
Ge      36.07703822       7.17610176      12.97604675       0.00088416      -0.00192327      -0.00095562      -4.44867057 F F F      -0.11521437       0.37041176       0.41892698
Ge      34.53615146       8.54260937      14.40953634       0.00039334      -0.00161661       0.00004815      -4.47942784 F F F       0.78758635       0.12875348       0.30415488
Ge      36.03268118      10.12465413      15.75120249      -0.00040158       0.00143204       0.00086987      -4.47542496 F F F       0.09638763      -0.81805622       0.19987843
Ge      37.47681121       5.74986328      14.35929543       0.00182216       0.00183913       0.00129954      -4.47413039 F F F       0.14324039      -1.01946538       0.10939506
Ge      38.92865939       7.19668434      15.63128196      -0.00074145       0.00090869      -0.00367511      -4.47925893 F F F       0.69859141       0.24621054       0.81873984
Ge      37.50100594       8.57636287      11.54738732       0.00194821      -0.00222729       0.00002293      -4.49549717 F F F       0.37226313       0.97483450      -0.32296512
Ge      39.03724661      10.23199841      12.87510768       0.00183347       0.00076216       0.00086816      -4.43580049 F F F      -1.14298091      -1.19662787       0.62897299
Ge      34.66657139       5.92035233      17.26513109       0.00180993      -0.00080378      -0.00105695      -4.48100692 F F F       0.10654944      -0.51196938       0.44591618
Ge      36.11497042       7.22795627      18.85213231      -0.00226898      -0.00005865      -0.00066374      -4.47594557 F F F      -0.14776376       0.20787727      -0.56098179
Ge      34.48200597       8.64545462      20.21003243      -0.00148902       0.00252763       0.00193127      -4.47012819 F F F       1.09573197       0.25863266      -0.11780290
Ge      36.04409965      10.13368556      21.59240007      -0.00122350      -0.00131651       0.00255821      -4.48989432 F F F      -0.21792495      -0.70868674       0.14176285
Ge      37.48116905       5.58372539      20.17743236       0.00021423       0.00173913      -0.00027430      -4.46853790 F F F       0.61475353       1.10413032      -0.16180641
Ge      38.87019639       7.18789871      21.70536499       0.00100937      -0.00225199       0.00212033      -4.49517780 F F F      -0.07147344      -0.33177091      -0.58389563
Ge      37.53118946       8.61631920      17.16059387       0.00050218      -0.00066620      -0.00368958      -4.47629656 F F F      -0.19897046       0.12397607       0.59866468
Ge      38.95590018      10.03388468      18.74740080       0.00226553       0.00231122      -0.00097055      -4.47953769 F F F      -0.63956133       0.56611766      -0.19803654
Ge      34.67683199       5.79209294      22.99215103      -0.00009005      -0.00135716       0.00001812      -4.47026647 F F F       0.58476993      -0.69034230       0.62896561
Ge      36.13463800       7.09942337      24.54161473      -0.00161707       0.00070857      -0.00288047      -4.49387829 F F F       0.05729097       0.61691170      -0.08236770
Ge      34.52810018       8.59915707      25.85588709       0.00089703       0.00095862       0.00038711      -4.44339948 F F F       0.84691107       0.78393240      -0.52604095
Ge      36.04306287       9.99555364      27.35826917      -0.00151059      -0.00013117      -0.00199114      -4.50299810 F F F      -0.35302047       0.18013392      -0.05306423
Ge      37.66038544       5.79808034      26.08568952       0.00110778       0.00531794       0.00238129      -4.51383018 F F F      -0.47890293       0.14800824       0.15623249
Ge      39.10004723       7.27502568      27.55101387      -0.00054991       0.00082796       0.00016722      -4.46930514 F F F      -0.22977783      -0.50240996      -0.56356355
Ge      37.52462124       8.72483354      23.10736163      -0.00071830      -0.00043513       0.00067274      -4.49387454 F F F      -0.50718213      -0.38328630       0.18714420
Ge      38.96327283      10.07456115      24.61995519      -0.00001553      -0.00066834      -0.00156115      -4.48519608 F F F      -0.12386167      -0.17032716      -0.03392465
Ge      34.67734622       5.85640816      28.83161881       0.00224084       0.00179727       0.00355777      -4.49002560 F F F      -0.04408241      -0.31256937       0.57375151
Ge      36.00018586       7.31985094      30.36742639       0.00070044      -0.00211134      -0.00152693      -4.47033083 F F F       0.69754097      -0.40609502      -0.73700254
Ge      34.58276025       8.89037413      31.54323066       0.00096585      -0.00166010      -0.00104845      -4.44951390 F F F      -0.13476438       0.05469214       0.99912263
Ge      36.01602197      10.16024276      33.24019719      -0.00131736       0.00222202      -0.00011762      -4.46332491 F F F       0.20884308      -0.46984984      -0.85608330
Ge      37.52508335       5.80105880      31.68142084      -0.00171490      -0.00239651      -0.00103250      -4.47365482 F F F      -0.73861911      -0.14554867       0.39022173
Ge      38.88297236       7.26886201      33.05600011       0.00130675       0.00056691       0.00016823      -4.49294595 F F F       0.22062673       0.42767563       0.36787639
Ge      37.53877762       8.62611398      28.80801992      -0.00235397       0.00393236      -0.00403175      -4.48468101 F F F      -0.35749689       0.31314002       0.70147261
Ge      38.94736307      10.16034819      30.22425871      -0.00142277       0.00125276       0.00303404      -4.49496831 F F F      -0.26558778       0.41490659      -0.19595439
Ge      34.66063265       5.84772651      34.56560866       0.00163634      -0.00064378      -0.00242292      -4.49603137 F F F       0.33171963       0.05702865       0.01380256
Ge      36.05990297       7.30024533      36.09651185      -0.00026710      -0.00194370      -0.00069329      -4.44079649 F F F      -0.43323778      -0.52669632      -0.30261096
Ge      34.75140358       8.65945423      37.66334747       0.00031431       0.00101567      -0.00227795      -4.48151729 F F F      -0.83490274       0.16714105      -0.57557003
Ge      36.13524710      10.12477494      39.00141285      -0.00163272      -0.00043869       0.00010335      -4.48255524 F F F       0.29050371       0.47072587      -0.07148474
Ge      37.47063713       5.73932635      37.31293603      -0.00172489      -0.00256630      -0.00117209      -4.47475548 F F F       0.85790943      -0.64678563       0.77303461
Ge      38.90555667       7.10977346      38.95559383      -0.00059832      -0.00201791      -0.00250073      -4.44303888 F F F       0.94171118      -0.89531420      -0.66407124
Ge      37.45270847       8.63276570      34.64139769      -0.00189256       0.00059413       0.00222706      -4.48374549 F F F       0.27598633       0.22720440      -0.75212937
Ge      38.92184938      10.02606717      36.00545816       0.00021182      -0.00079829       0.00101515      -4.49894351 F F F       0.29407296       0.39684286       0.53371371
Ge      34.76148846       5.58200186      40.36628563      -0.00020630      -0.00540374       0.00473737      -4.46516462 F F F      -0.13060125       0.60357875      -0.55583347
Ge      36.23098209       7.09069401      41.70345650       0.00627040      -0.00027187      -0.00165067      -4.49702843 F F F      -0.09793476       0.10675597       0.72427999
Ge      34.70754882       8.60226773      43.21701373       0.00135179      -0.00463300      -0.00138151      -4.46460454 F F F       0.72228229       0.32715040      -0.76983465
Ge      35.99197361      10.14175961      44.73016389      -0.00063933      -0.00145697       0.00406146      -4.46740806 F F F       0.33190457      -0.86577852       0.47189990
Ge      37.65326947       5.66969940      43.34905786       0.00037685       0.00417025       0.00209974      -4.50913721 F F F       0.03011151       0.25583716      -0.36252064
Ge      39.08242584       7.26622113      44.72263590      -0.00071065       0.00137921       0.00037168      -4.50087007 F F F      -0.33516729      -0.48669692       0.14123169
Ge      37.64143993       8.60474336      40.27779281      -0.00040123      -0.00081904      -0.00440189      -4.43223890 F F F      -0.56691068       0.38549577       0.95940142
Ge      39.08464173       9.92457412      41.85611513      -0.00122995       0.00187430      -0.00360397      -4.48183976 F F F      -0.52070006       0.49713524      -0.18837660
Ge      34.59180163      11.66541641      46.12289923      -0.00027801       0.00386326       0.00249578      -4.48137473 F F F      -0.28763055      -0.32966218      -0.57441402
Ge      36.05748008      12.92560430       1.41529898      -0.00309869      -0.00120457       0.00228988      -4.47795838 F F F      -0.10566989       0.31779201       0.51367501
Ge      34.60608658      14.49338792       2.79194609      -0.00261140       0.00034096      -0.00171512      -4.50707620 F F F       0.28752950      -0.30581507       0.05990338
Ge      36.09132019      15.87206788       4.26702503      -0.00053521       0.00380342       0.00360151      -4.50000645 F F F       0.03166440      -0.34763232       0.28949344
Ge      37.54621208      11.48764559       2.83661753      -0.00494090      -0.00127703       0.00126462      -4.48536725 F F F      -0.24346608       0.70282054       0.65332206
Ge      38.92572867      13.14517929       4.30113884      -0.00266518      -0.00136775       0.00020417      -4.48050326 F F F      -0.45083559      -0.62270017       0.12156023
Ge      37.50108462      14.31896674       0.05324823      -0.00358107       0.00106484       0.00401566      -4.46996844 F F F      -0.05873807       0.11519400      -1.11368798
Ge      38.84064080      15.83147670       1.37468186      -0.00069439       0.00081198       0.00009606      -4.44687599 F F F       0.67461241      -0.40414718       0.86144125
Ge      34.54684346      11.54171942       5.64012201      -0.00078755       0.00134021      -0.00084299      -4.48243280 F F F       0.16419851      -0.00134321       0.56856029
Ge      35.81653231      13.10522716       7.18662262      -0.00057411      -0.00028017       0.00206288      -4.48118326 F F F       0.40411538      -0.68787347      -0.14107794
Ge      34.52902241      14.65382169       8.60564694      -0.00290440      -0.00140253       0.00064773      -4.45832327 F F F       0.26150659      -0.35858286       0.41920808
Ge      35.98808724      15.97088630      10.14435777      -0.00106494       0.00042646       0.00114379      -4.52448997 F F F       0.45688156      -0.02630422      -0.07463469
Ge      37.40539258      11.58837663       8.48998152       0.00092430       0.00076905      -0.00193187      -4.49946948 F F F       0.27109721       0.25609021      -0.02209671
Ge      38.88248576      13.05783455       9.94047608      -0.00031645       0.00269314       0.00139741      -4.50315622 F F F      -0.46641223      -0.36415968       0.68039011
Ge      37.39882146      14.45468026       5.88627909      -0.00024138       0.00068599       0.00014198      -4.47549821 F F F       0.12504071      -0.14014493      -0.92877373
Ge      38.89117152      15.76000148       7.30554887      -0.00095280      -0.00034321       0.00033264      -4.46421752 F F F      -0.16687296       0.66214859      -0.30822158
Ge      34.80240503      11.56179401      11.43549207       0.00182426       0.00122916       0.00124091      -4.49909115 F F F      -0.39466790      -0.47653111      -0.22196963
Ge      36.11516426      13.00985480      12.92693933      -0.00148990       0.00137688       0.00408563      -4.47994016 F F F      -0.09678661      -0.19743001       0.69641888
Ge      34.60180534      14.36121758      14.46179486      -0.00021896      -0.00150511       0.00197965      -4.46721524 F F F       0.43373213      -0.66941372       0.63963224
Ge      35.98730042      15.79887216      16.02546823      -0.00085003      -0.00244185       0.00296597      -4.49205343 F F F      -0.35809434       0.16000033       0.18441330
Ge      37.51551639      11.53073337      14.40724458       0.00079878      -0.00125712      -0.00140310      -4.50540771 F F F       0.54022700       0.57003684      -0.12195655
Ge      39.01789861      13.02993469      15.93025068      -0.00088631       0.00014743       0.00221356      -4.46920667 F F F      -0.90503653      -0.15955077      -0.76195122
Ge      37.48723398      14.49409336      11.57994931      -0.00290564       0.00001271      -0.00001615      -4.46531238 F F F      -0.08882714      -0.19658773      -1.14886803
Ge      38.80715155      15.90412874      13.01702807      -0.00003677       0.00253336       0.00634925      -4.47289881 F F F       0.34198982       0.21378849       0.81094583
Ge      34.75507400      11.57709001      17.25882351       0.00031428      -0.00062636      -0.00228483      -4.45951850 F F F      -0.31193234      -0.17708056       0.79159690
Ge      36.11401817      12.95639846      18.92350957      -0.00150598      -0.00150379      -0.00145789      -4.44596986 F F F      -1.04745910       0.55029231      -0.67172410
Ge      34.45970858      14.58731967      20.05357606       0.00300907       0.00174767       0.00228067      -4.49261688 F F F       0.59588060      -0.73846341       0.28160741
Ge      35.95682130      15.84645856      21.61597970      -0.00518729       0.00066031      -0.00084259      -4.40947595 F F F       0.68248870      -0.93142143      -0.46917132
Ge      37.51224860      11.61342611      20.31781460       0.00007200       0.00185583       0.00303066      -4.44237134 F F F       0.81345544      -0.87376815      -0.21827103
Ge      38.97193089      12.92835779      21.84103287      -0.00153679      -0.00056579      -0.00065138      -4.48181184 F F F       0.29342096       0.12130262      -0.71531751
Ge      37.49022107      14.33885308      17.43926181      -0.00075914       0.00434305       0.00084761      -4.49656395 F F F       0.10759336       0.27136044      -0.47943304
Ge      38.92437724      15.79364029      18.80579436      -0.00129808      -0.00000780       0.00138975      -4.48066641 F F F       0.37572590       0.16913706      -0.30122517
Ge      34.53748448      11.50626751      22.96360883       0.00200548      -0.00028342      -0.00002336      -4.46915081 F F F       0.61856435       1.27301838      -0.11189988
Ge      36.02225309      12.96288836      24.48828853       0.00208156      -0.00144971      -0.00194984      -4.51796639 F F F      -0.23240731      -0.14166413      -0.11253482
Ge      34.54677573      14.34784598      25.97839152      -0.00192116      -0.00303958       0.00058793      -4.50327902 F F F       0.20269721       0.58585647      -0.20728269
Ge      36.13557322      15.85301684      27.37638928      -0.00540192       0.00316575       0.00076824      -4.48142157 F F F      -0.38347552       0.04716592      -0.46353294
Ge      37.41196880      11.47531435      25.95918006      -0.00209681      -0.00118861      -0.00187884      -4.48207706 F F F       0.13438035       0.15842170      -0.28788296
Ge      38.92838211      12.87887510      27.30000709      -0.00175458      -0.00102895      -0.00250864      -4.46172599 F F F      -0.05077614       1.00380094       0.55284712
Ge      37.50408047      14.43126287      23.07878718      -0.00183146      -0.00178175       0.00107992      -4.49707863 F F F      -0.59580837       0.06246721       0.28936144
Ge      38.98193661      15.84147528      24.50382018      -0.00011822       0.00186619       0.00065018      -4.48353824 F F F      -0.25842856      -0.10545630       0.21118749
Ge      34.67734019      11.69597842      28.69346046      -0.00324666       0.00107363       0.00274623      -4.42455523 F F F       0.06786980      -1.17103067       0.48182919
Ge      36.06507667      13.05858825      30.18539261      -0.00077317      -0.00107356       0.00428209      -4.49735123 F F F       0.37607820       0.44086735       0.18336343
Ge      34.75334751      14.51478791      31.73750210      -0.00069297       0.00197864      -0.00018248      -4.43373188 F F F      -0.81557922      -0.07174923      -1.07970372
Ge      36.04930569      15.98331293      33.07104160       0.00055051      -0.00136090      -0.00203040      -4.45089998 F F F       0.44286275       0.40190530       0.75883471
Ge      37.36437024      11.55441583      31.66587497       0.00173946      -0.00485457       0.00016273      -4.49119200 F F F       0.91755901       0.10616076       0.28897509
Ge      38.95042431      12.98561872      33.15539754      -0.00104063      -0.00269506       0.00051637      -4.48429122 F F F      -0.02365497      -0.48069382      -0.59037770
Ge      37.63168166      14.55834484      28.84800720       0.00045681      -0.00075480      -0.00096902      -4.48315983 F F F      -0.31474122      -0.99541156      -0.29109274
Ge      38.99305981      15.97885849      30.30387321      -0.00011387      -0.00221638      -0.00199086      -4.45634158 F F F      -0.00433421       0.23213124      -0.30826997
Ge      34.54366584      11.48628090      34.60465007       0.00068338      -0.00317600       0.00013920      -4.40432692 F F F      -0.22525485       1.14823354      -0.24136255
Ge      35.99921828      13.03409398      35.85170194       0.00023618      -0.00251250      -0.00025813      -4.49505526 F F F       0.30434291      -0.06062630       0.86997637
Ge      34.71183657      14.55831636      37.41612069      -0.00094019       0.00015124       0.00142668      -4.50367234 F F F       0.12678657      -0.45772993       0.54336206
Ge      36.15488966      16.01626936      38.95250290      -0.00422189      -0.00021848       0.00056774      -4.46451377 F F F      -0.04622504      -0.29625611       0.18009222
Ge      37.46290522      11.58380173      37.43478533      -0.00024486      -0.00377399       0.00310634      -4.50550158 F F F       0.02237351      -0.02177033      -0.33688085
Ge      38.94388739      12.97743655      38.90224156      -0.00310900      -0.00031322      -0.00193601      -4.47678481 F F F       0.06260553      -0.13995914       0.36777618
Ge      37.45614281      14.42478979      34.41246125       0.00062389      -0.00022564      -0.00010472      -4.47969842 F F F       0.21259690       0.58424685       0.72940158
Ge      38.95578505      15.87913263      35.98070247       0.00268962      -0.00168218      -0.00143868      -4.48462916 F F F      -0.40036861       0.03507764      -0.58009867
Ge      34.65924587      11.60779319      40.36132398      -0.00305701      -0.00201137       0.00163612      -4.45829908 F F F       0.94223768       0.03010616       0.43446648
Ge      36.27607141      12.99399877      41.85120133      -0.00069775      -0.00061760      -0.00003917      -4.45153891 F F F       0.28742249      -0.93004885      -0.65981207
Ge      34.81779212      14.35174021      43.14535128      -0.00412952       0.00021168       0.00208475      -4.42946340 F F F      -1.15962986       0.80538599       0.55587015
Ge      36.21850874      15.82642633      44.59061684       0.00034034       0.00168461       0.00136704      -4.49265460 F F F      -0.03911841      -0.19655688       0.18013906
Ge      37.57940514      11.31119465      43.31202450       0.00224317      -0.00292589      -0.00124341      -4.48709198 F F F       0.23649137       0.99651458      -0.36113790
Ge      38.99443378      12.90003772      44.75116471      -0.00155924       0.00117150       0.00101117      -4.50394746 F F F      -0.20238481      -0.07351127       0.20044168
Ge      37.74388537      14.49958788      40.48453120       0.00028157      -0.00108794       0.00113967      -4.46267002 F F F      -0.82485529       0.11429045      -0.71049586
Ge      39.12259762      15.98889605      41.88475533       0.00121611       0.00213048      -0.00153723      -4.48269401 F F F       0.09561588      -0.22436802      -0.09327465
Ge      34.74517590      17.31153307      45.91379919       0.00077687       0.00074351      -0.00109989      -4.47117485 F F F      -0.60509965      -0.29789270       0.45641039
Ge      36.16231308      18.59149331       1.26207087       0.00209307       0.00024183       0.00096224      -4.46982447 F F F       0.11925764       0.51966708       0.76174815
Ge      34.82476258      20.24940143       2.70917931       0.00009532       0.00251692       0.00192108      -4.47743741 F F F      -0.53921686      -0.11634473      -0.26992787
Ge      36.04666713      21.75306189       4.24177892       0.00130489      -0.00267761      -0.00438491      -4.49243482 F F F      -0.04880569      -0.17261230       0.57011777
Ge      37.61169762      17.26893632       2.95397804      -0.00015429      -0.00044460      -0.00211367      -4.44289149 F F F      -0.71011510       0.19027906      -0.91790875
Ge      38.86228568      18.78834656       4.35318782       0.00003337      -0.00227290      -0.00189495      -4.48232357 F F F       0.50626188       0.01349562       0.59510186
Ge      37.50183307      20.18153400      46.09364695       0.00203662       0.00062928       0.00066278      -4.48051548 F F F       0.51323482      -0.09525110       0.34506588
Ge      38.91215842      21.66732109       1.43777186       0.00068952       0.00088872       0.00083518      -4.50432954 F F F       0.25109121       0.28410098      -0.45231199
Ge      34.73803119      17.37336620       5.66916029       0.00060696      -0.00347977       0.00250361      -4.48210323 F F F      -0.40275553      -0.07423932       0.07453600
Ge      36.03089077      18.75874579       7.21066808       0.00038058      -0.00212587       0.00060814      -4.48475011 F F F       0.18634488       0.49752177       0.10766290
Ge      34.70773619      20.20797510       8.80924307       0.00125542       0.00233156      -0.00182296      -4.50070673 F F F      -0.22547693      -0.16328818      -0.48393923
Ge      36.15618279      21.73543084      10.09087910       0.00156264      -0.00112358       0.00010621      -4.48245583 F F F      -0.00342242      -0.09665380       0.32619789
Ge      37.46297420      17.35020420       8.62309735      -0.00234280      -0.00364279      -0.00328750      -4.50918823 F F F       0.26172492      -0.28581929       0.33396323
Ge      39.01101837      18.79672965       9.94634869       0.00328561      -0.00097749      -0.00078510      -4.46804508 F F F      -0.09873655      -0.47493919       1.09622366
Ge      37.44228358      20.27285624       5.80227390       0.00207087       0.00117123       0.00054531      -4.51660622 F F F      -0.15488071      -0.08112376      -0.40709539
Ge      39.02202489      21.56732344       7.19635613      -0.00196078       0.00159501       0.00207324      -4.48124145 F F F       0.03400371       0.14253140       0.18591128
Ge      34.56005576      17.43612340      11.54637525      -0.00209409      -0.00260049       0.00181846      -4.49034581 F F F       0.31723696      -0.45588150       0.31984411
Ge      35.99230833      18.84789278      13.01659642       0.00162938       0.00081560       0.00010192      -4.47688048 F F F       0.75490782      -0.38067501      -0.57311124
Ge      34.60631881      20.26429889      14.37168982       0.00195425      -0.00145842      -0.00100616      -4.48691171 F F F      -0.47210397       0.36320934       0.55236486
Ge      36.08216805      21.65251819      15.85802584      -0.00012534       0.00222638       0.00106474      -4.46975694 F F F      -0.75472074      -0.33917125       0.50655312
Ge      37.28543181      17.30595812      14.56333663       0.00102532      -0.00178496       0.00029876      -4.48825799 F F F       0.75551554       0.11589519      -0.52017973
Ge      38.91665939      18.79001475      15.81944375       0.00057896      -0.00255437      -0.00042193      -4.47067623 F F F      -0.47035376      -0.53693403       0.89691919
Ge      37.56635653      20.21470420      11.45831689      -0.00336085       0.00549889      -0.00052881      -4.50484311 F F F      -0.24793231      -0.29680844       0.28572445
Ge      38.93068900      21.63426050      12.95725379       0.00039419       0.00232098      -0.00009482      -4.48508027 F F F      -0.43296123      -0.00629780       0.32453900
Ge      34.50994089      17.43155150      17.41994066       0.00150666       0.00370442      -0.00224148      -4.47766777 F F F       0.64923959      -0.23823501      -0.68170367
Ge      36.01597664      18.73531282      18.97135349       0.00019582      -0.00272615       0.00444201      -4.48757661 F F F       0.06345104      -0.43918478      -0.54882822
Ge      34.47239592      20.16026050      20.22729375      -0.00003776      -0.00092332       0.00213865      -4.45623242 F F F       0.65865981       0.05644869       0.92991227
Ge      36.12549646      21.65149306      21.55376404      -0.00210444       0.00112864       0.00180464      -4.44785110 F F F      -1.27638750      -0.59511503       1.01565566
Ge      37.52146030      17.14557863      20.27009147       0.00092342      -0.00206471      -0.00165797      -4.48810671 F F F      -0.04107302       1.11909892       0.08159901
Ge      38.99730432      18.72156947      21.67435796       0.00220613       0.00165275       0.00093333      -4.46784386 F F F      -0.38846212      -0.64407965      -0.03940087
Ge      37.33006942      20.14069578      17.36503899       0.00128604      -0.00304274      -0.00024951      -4.47454127 F F F       0.69759320      -0.15928565      -0.28194287
Ge      38.79269250      21.60601719      18.74960879      -0.00181894       0.00080713       0.00111114      -4.51663238 F F F       0.47661383       0.05467971       0.15816677
Ge      34.68704165      17.27470575      22.97716215      -0.00021090       0.00012552       0.00183981      -4.43247294 F F F      -0.67871838       1.28477160       1.29452661
Ge      36.09061302      18.72424174      24.62580013      -0.00044399      -0.00280791      -0.00038285      -4.48319409 F F F      -0.07177716       0.29308563      -1.19613697
Ge      34.50202337      20.12188244      25.96235822      -0.00159434      -0.00193848       0.00278082      -4.45681409 F F F       0.81595628       0.30949546       0.38378547
Ge      35.93231903      21.72796596      27.41519244       0.00132907      -0.00107736       0.00082640      -4.51826576 F F F       0.16428375      -0.52244095      -0.33871208
Ge      37.61188260      17.34067923      25.95626144      -0.00013507      -0.00215239       0.00451981      -4.48245182 F F F      -0.45325479      -0.38512820       0.12445949
Ge      38.89917529      18.89483354      27.35612077      -0.00062634      -0.00052478       0.00135197      -4.46572404 F F F       0.08182732      -0.34061856       0.33843065
Ge      37.57989250      20.21631907      23.02929912       0.00316907       0.00024165      -0.00418037      -4.49292220 F F F      -0.44249915       0.11296183       0.65263379
Ge      38.97726904      21.82928067      24.45718550       0.00204269       0.00110534      -0.00180529      -4.46092758 F F F      -0.29391883      -0.72711031      -0.59429435
Ge      34.55552873      17.33794509      28.62775833       0.00104043      -0.00083158       0.00015779      -4.49473806 F F F       0.20264452      -0.04709551       0.60292959
Ge      35.98945264      18.79161480      30.13998087      -0.00114729       0.00012961       0.00271445      -4.49543239 F F F       0.50889466      -0.38362704      -0.03764698
Ge      34.59478340      20.25304945      31.50824182       0.00028594       0.00067382       0.00212566      -4.48697931 F F F      -0.33680165       0.23080221       0.64740254
Ge      35.91521183      21.86494533      32.96388926       0.00046037      -0.00164369       0.00061846      -4.47450228 F F F       0.43461918      -1.05229232       0.41554895
Ge      37.53189015      17.39646301      31.70059292      -0.00034171       0.00223136       0.00243901      -4.51288832 F F F      -0.38563260       0.63902096      -0.15903358
Ge      38.89069895      18.93938717      33.16786265       0.00155015       0.00137935       0.00011619      -4.50205802 F F F      -0.06050660      -0.28919725      -0.11489602
Ge      37.48350281      20.30880005      28.82527686      -0.00032476      -0.00322604      -0.00175208      -4.49805337 F F F      -0.50142720       0.06755671      -0.16849228
Ge      38.83827483      21.86258473      30.18613466      -0.00322880       0.00193447      -0.00178893      -4.50375607 F F F       0.63101526      -0.68026538       0.25121299
Ge      34.62086724      17.35991395      34.65559376       0.00003321      -0.00108700       0.00065810      -4.51185875 F F F      -0.26524363       0.00832347      -0.75643766
Ge      36.10373105      18.78475462      35.98424858      -0.00351621      -0.00199685      -0.00044949      -4.47714573 F F F       0.15637920       0.15865994       0.04192895
Ge      34.57433074      20.21759637      37.28946958      -0.00033768       0.00000662      -0.00079454      -4.45312431 F F F       0.70975488       0.25339182       0.21715717
Ge      35.93933014      21.64582115      38.86228072      -0.00228307      -0.00270977      -0.00162358      -4.46823864 F F F      -0.13341654      -0.58075302       0.48668270
Ge      37.61574042      17.39394376      37.40331651       0.00131033      -0.00044815       0.00242218      -4.49137133 F F F      -0.37510522      -0.07298372       0.55061093
Ge      38.95237269      18.81230477      39.00864446       0.00123840       0.00043865       0.00243355      -4.47578830 F F F      -0.20947006       0.00224266      -0.47580497
Ge      37.40631600      20.38142243      34.58850603      -0.00079506       0.00185670      -0.00158451      -4.48522068 F F F      -0.29104070       0.00733051      -0.73682464
Ge      38.78950744      21.73437911      36.09477913      -0.00114802      -0.00119307      -0.00239979      -4.49620622 F F F       0.05540297       0.50460901       0.13288796
Ge      34.49206062      17.44805552      40.34964567       0.00285162      -0.00007420      -0.00353259      -4.46012209 F F F      -0.09686824      -0.72424978      -0.87621635
Ge      35.92708087      18.82621576      41.67183608       0.00289481      -0.00070875       0.00060848      -4.45524123 F F F       0.84540849       0.67311757       0.61073240
Ge      34.57805062      20.42901333      43.07676455       0.00077053      -0.00050517      -0.00047439      -4.48445202 F F F       0.27844850      -0.91221835       0.28419781
Ge      36.17260580      21.59164821      44.62350472      -0.00035951       0.00003390       0.00122792      -4.42456121 F F F      -1.19096440       0.03446608       0.48049733
Ge      37.48763238      17.39960180      43.09029094       0.00114491       0.00170959       0.00074313      -4.48447249 F F F      -0.14693161       0.01749755       0.25451029
Ge      38.92556391      18.76548557      44.61055896      -0.00060161      -0.00264075       0.00024036      -4.49823059 F F F      -0.25717267      -0.12801006       0.18039341
Ge      37.54534510      20.31610613      40.37473662       0.00265003       0.00225218      -0.00035688      -4.47982985 F F F      -0.69925764      -0.21990143      -0.13222870
Ge      39.04682527      21.67481322      41.80045517      -0.00074972       0.00340246       0.00176365      -4.48462274 F F F      -0.34414839       0.50155148       0.77326451
Ge      34.65381053      22.98776994      46.13128102      -0.00253137       0.00096311       0.00084222      -4.49156312 F F F       0.71158470       0.50612580      -0.17683019
Ge      36.10985017      24.48794039       1.42218706       0.00147078      -0.00303254      -0.00172892      -4.50324254 F F F      -0.30795299       0.59126609      -0.35928299
Ge      34.68304386      25.95437613       2.90328490      -0.00082391      -0.00312630       0.00177357      -4.48595568 F F F       0.23663247       0.14661077      -0.57978768
Ge      36.10061791      27.35981447       4.40321181      -0.00130938      -0.00146380       0.00022920      -4.48078208 F F F      -0.01333782       0.30772535      -0.63532587
Ge      37.54608001      23.17138461       2.90540168      -0.00283183      -0.00154422      -0.00034635      -4.45749219 F F F       0.32037313      -0.23565405       0.06356932
Ge      38.93717661      24.49382471       4.50718155       0.00078242       0.00243967      -0.00010753      -4.51042423 F F F       0.47781317       0.24572870      -0.23851939
Ge      37.46134901      26.19331958       0.00847395       0.00211194      -0.00246523      -0.00135794      -4.43380122 F F F      -0.50999189      -0.63120964       0.37505569
Ge      38.88344319      27.54022714       1.43002757       0.00252037       0.00213648       0.00303449      -4.48490611 F F F       0.22563295      -0.08366098       0.67689178
Ge      34.46612663      23.16743764       5.67111750      -0.00153458      -0.00053105      -0.00036983      -4.46814208 F F F       0.67738427      -0.32164973       0.35334731
Ge      36.17060987      24.35742150       7.20164347      -0.00027618       0.00228371      -0.00173421      -4.46818414 F F F      -0.99783684       0.76303804      -0.20094200
Ge      34.62873520      25.87812988       8.63681028       0.00213294       0.00036192      -0.00013553      -4.49132424 F F F      -0.22358726      -0.27172283      -0.29481897
Ge      36.00104511      27.39913184      10.01345803       0.00038610       0.00095301       0.00187013      -4.49283962 F F F       0.50890147      -0.09571238       0.63129976
Ge      37.65551809      23.05081166       8.64429310      -0.00025850       0.00051286      -0.00032053      -4.48258010 F F F      -0.01786251      -0.15042758      -0.14581905
Ge      39.04393731      24.56422632      10.00284200       0.00194099      -0.00441941      -0.00532245      -4.46950759 F F F      -0.61266036      -0.27784682       0.99214465
Ge      37.50868778      25.99967078       5.89266695       0.00145088       0.00058626      -0.00013317      -4.47643198 F F F       0.19390566      -0.43364538      -0.00718813
Ge      38.96225485      27.42736865       7.30295658       0.00164179      -0.00009566       0.00387356      -4.48420354 F F F      -0.07182844      -0.38900660       0.19441417
Ge      34.67359547      23.25011675      11.42659028      -0.00238375      -0.00065532       0.00351476      -4.45944875 F F F      -0.79006238      -0.92789976       0.22566891
Ge      35.91541206      24.51594247      13.04755564      -0.00082220       0.00048381       0.00092535      -4.44043036 F F F       1.08855574       0.50255567      -0.26428308
Ge      34.62871410      26.00798112      14.48290566       0.00131491      -0.00053698      -0.00489721      -4.46601986 F F F       0.15415264      -0.14084255       0.52314339
Ge      36.03716004      27.55964612      15.91331753       0.00026144       0.00176181      -0.00112672      -4.47970494 F F F       0.21815839      -0.42962868      -0.69497700
Ge      37.40556895      23.07240333      14.41586386      -0.00020670       0.00182956       0.00149973      -4.49350542 F F F       0.92897824       0.30503511      -0.19330670
Ge      38.97199701      24.56209698      15.80400344      -0.00086051       0.00373938      -0.00256993      -4.49414161 F F F      -0.56371777       0.09486353       0.24987691
Ge      37.50303069      25.90031970      11.53899009       0.00471933      -0.00011833      -0.00127963      -4.50438227 F F F      -0.39335235       0.14719763      -0.29846186
Ge      38.97016648      27.34143118      12.95727349       0.00066027       0.00138649      -0.00180917      -4.48132544 F F F      -0.20368537       0.24481128       0.37634220
Ge      34.61319056      22.97166114      17.46386262       0.00439975      -0.00371355      -0.00005008      -4.46650043 F F F       0.22105242       0.27752910      -1.12127316
Ge      36.09804832      24.42384288      18.74433833       0.00098130      -0.00029651       0.00021894      -4.44040759 F F F      -0.78193102       0.69345008       0.36145809
Ge      34.63690781      26.00077434      20.12514638       0.00156867       0.00163219      -0.00158916      -4.52458589 F F F       0.07013179      -0.23708218       0.00833740
Ge      36.02744978      27.40829850      21.67507489       0.00122404      -0.00257926       0.00105221      -4.45299106 F F F       0.24043963      -0.53933968       0.31878585
Ge      37.43498203      23.13816585      20.27255293      -0.00335733       0.00063155       0.00170128      -4.39039900 F F F       1.07788958      -0.27927402      -0.79953306
Ge      39.03313278      24.53586182      21.48459202      -0.00180731       0.00031555       0.00306992      -4.42520342 F F F      -0.69659579      -0.08858858       1.20743193
Ge      37.29820462      25.96263795      17.31376418      -0.00130165       0.00266307      -0.00145755      -4.45531988 F F F       1.14350584      -0.09947598      -0.63257471
Ge      38.82064250      27.29773153      18.75156312      -0.00092186      -0.00140180      -0.00027328      -4.48775536 F F F       0.26513896       0.70078727       0.49532602
Ge      34.67658177      23.18632245      23.09523473      -0.00122200      -0.00017632       0.00322938      -4.50012995 F F F       0.00923485      -0.35729302      -0.35823261
Ge      36.13965351      24.67826522      24.45350350       0.00185105       0.00134361       0.00071056      -4.47926054 F F F      -0.56606216      -0.23609007       0.55124618
Ge      34.55413090      26.17591693      25.90638096      -0.00097780       0.00213714      -0.00133069      -4.42415118 F F F       1.28953246      -0.22867973      -0.27634792
Ge      35.97801716      27.54837910      27.40144360      -0.00106102       0.00202569      -0.00049802      -4.49336423 F F F       0.64251327      -0.06487128       0.40411684
Ge      37.41083785      23.04854399      25.86712272      -0.00128859       0.00077587      -0.00079147      -4.46377094 F F F      -0.21307727       0.55923544       0.26603702
Ge      38.92685654      24.52925756      27.19205190       0.00215667      -0.00002981       0.00070363      -4.51520566 F F F       0.04552142       0.12553341       0.40912728
Ge      37.62986896      25.98274637      23.04266467       0.00150917      -0.00218242       0.00290632      -4.50523473 F F F       0.04267045       0.34181111      -0.40697393
Ge      39.04694277      27.48285976      24.47726662       0.00056031       0.00022177       0.00107653      -4.49315615 F F F       0.21387979      -0.20735647      -0.25845007
Ge      34.56006345      23.25508446      28.81292862       0.00041187      -0.00173793       0.00130734      -4.47372243 F F F       0.29851456      -0.51543538       0.43315892
Ge      36.07546396      24.71657625      30.15382167       0.00138263       0.00147841       0.00153556      -4.48823985 F F F      -0.52347997      -0.41058830       0.64980565
Ge      34.63929222      26.07461993      31.75653152      -0.00021110       0.00040759       0.00099148      -4.41896815 F F F       0.73359017      -0.19581515      -0.76092931
Ge      36.07600559      27.38266037      33.18043174       0.00185629      -0.00114274       0.00053857      -4.47986035 F F F       0.18522717       0.87193460      -0.06129099
Ge      37.42641644      23.24973605      31.63786204      -0.00124268      -0.00132287      -0.00174274      -4.46474672 F F F      -0.17043571      -0.00955796      -0.21782992
Ge      38.85573994      24.52341973      33.13639400       0.00459323      -0.00205006       0.00054098      -4.49406304 F F F       0.35967157       0.71253302       0.09995284
Ge      37.53367326      25.97307027      28.73246992       0.00048487       0.00325911      -0.00002534      -4.46687775 F F F       0.09063770       0.68991750      -0.75556259
Ge      38.99483095      27.42448230      30.12560830       0.00325927       0.00132148      -0.00081550      -4.50150689 F F F      -0.05364266       0.18752243       0.14121374
Ge      34.53107916      23.20504885      34.47257763      -0.00067545       0.00143892      -0.00136589      -4.46177046 F F F       0.32551056      -0.20655439       0.89701334
Ge      35.96614046      24.69158323      36.06244247      -0.00056029      -0.00029065       0.00087993      -4.48465366 F F F      -0.66513508      -0.42776930      -0.05942834
Ge      34.54681922      26.05946664      37.64739190       0.00270306       0.00187618      -0.00385478      -4.48776631 F F F       0.56206477      -0.04219254       0.03916638
Ge      36.12653923      27.44815163      39.17743828      -0.00071854       0.00082986       0.00310560      -4.47646389 F F F      -0.41826250      -0.22956673      -0.91897069
Ge      37.20085688      23.15906513      37.53465551      -0.00169292      -0.00167468      -0.00117800      -4.43263596 F F F       1.63325767       0.42756333      -0.49092634
Ge      38.94135937      24.56742303      38.88474843       0.00155107       0.00327361       0.00248409      -4.48669441 F F F      -0.32578474      -0.21672863      -0.21646255
Ge      37.44179693      26.01861377      34.62354637      -0.00264838      -0.00329631      -0.00089773      -4.47900311 F F F       0.62716081      -0.37202450      -0.00843345
Ge      38.86071960      27.43816812      36.08244233       0.00263223       0.00194934       0.00068645      -4.48874075 F F F       0.72259978      -0.01111298      -0.56253752
Ge      34.50484242      23.06001808      40.29888591       0.00074015      -0.00305741       0.00162914      -4.48522501 F F F       0.52235246       0.02548689       0.51029489
Ge      36.01832024      24.44976152      41.82887057       0.00054781       0.00115455       0.00114147      -4.48836879 F F F      -0.44285398      -0.23703154       0.32464777
Ge      34.69092462      25.93783495      43.37934629      -0.00077743      -0.00218005       0.00085545      -4.45619103 F F F       0.51204932       0.89137726      -0.85495856
Ge      36.21543291      27.58724980      44.60576477       0.00153517      -0.00115078      -0.00078482      -4.43959905 F F F      -1.02896484      -0.35704008       0.80550851
Ge      37.46685622      23.14966854      43.39437594      -0.00087268      -0.00103555      -0.00161841      -4.44491263 F F F       1.06859240       0.13644993      -1.02648113
Ge      38.80804874      24.68096143      44.88432577      -0.00134571      -0.00324767       0.00076902      -4.48450515 F F F       0.57092906      -0.81144741      -0.45892024
Ge      37.47011186      25.84012944      40.46198417      -0.00101229      -0.00140331      -0.00048220      -4.46735468 F F F       0.75660365       0.68564765       0.05590603
Ge      38.97602871      27.36043788      41.89982190       0.00096191       0.00236330      -0.00080701      -4.48753433 F F F      -0.21830661       0.44332328      -0.67651517
Ge      34.71975308      28.87021695       0.11166323       0.00219826      -0.00086721      -0.00053304      -4.47296735 F F F      -0.02519014       0.10924054      -1.03821462
Ge      36.01704117      30.48609222       1.45534579      -0.00019439       0.00078551      -0.00095876      -4.47875557 F F F      -0.35361349      -0.35406378       0.63268669
Ge      34.50303004      31.85524062       3.00937015       0.00064420      -0.00111053      -0.00077690      -4.46882917 F F F       0.41541541       0.07415381      -1.29874131
Ge      36.08152056      33.17756235       4.34402676       0.00239420      -0.00066549      -0.00219620      -4.42837085 F F F      -0.24111636      -0.61076304       0.41522917
Ge      37.38177638      28.92843277       2.84394387      -0.00117200       0.00100073      -0.00210157      -4.51041528 F F F       0.29494417      -0.13189006       0.44780164
Ge      38.88712012      30.21773842       4.41745457      -0.00162206       0.00092293      -0.00242801      -4.49047917 F F F      -0.04577651      -0.29228402      -0.02167394
Ge      37.52216982      31.71797708      46.17001707      -0.00053827       0.00092800      -0.00248758      -4.44591478 F F F       0.64581255       0.21110101       0.30178341
Ge      38.97719970      33.18912886       1.45147349       0.00062748       0.00359093       0.00079752      -4.49914417 F F F       0.02744002      -0.59387351       0.10984036
Ge      34.64149175      28.86377879       5.68315790      -0.00031534       0.00086653      -0.00315995      -4.49946748 F F F      -0.67877969      -0.20343564       0.31968376
Ge      35.98869485      30.20684112       7.21361791       0.00178267       0.00035229       0.00076284      -4.47730524 F F F       0.04054557       1.21624516      -0.17873268
Ge      34.57919404      31.79677970       8.64869122      -0.00052384      -0.00066797      -0.00067513      -4.51319698 F F F      -0.00913735      -0.69854941       0.12842791
Ge      36.09747815      33.11843391      10.11426759      -0.00138288      -0.00185676      -0.00433490      -4.47126951 F F F       0.35859491      -0.51382568       0.09293790
Ge      37.46457085      28.88604803       8.60671450      -0.00162282       0.00174552       0.00044977      -4.47608576 F F F       0.17549551      -0.43038679       0.81804658
Ge      38.94743575      30.15724911      10.22376695       0.00060847       0.00017179      -0.00220888      -4.43237573 F F F      -0.95500137       0.41296107      -0.31711224
Ge      37.49564763      31.70357274       5.78072382      -0.00124707      -0.00214799      -0.00266741      -4.50332341 F F F      -0.64398682      -0.48056781       0.03952573
Ge      38.98017406      33.01525535       7.17947266       0.00102474      -0.00013700       0.00066318      -4.44837360 F F F      -0.30588018       0.62061199       0.64934523
Ge      34.63284846      28.88330820      11.54508009      -0.00351121       0.00300035       0.00201043      -4.47445259 F F F       0.65263409      -0.14226401      -0.03131135
Ge      36.11514524      30.25847663      13.04088514       0.00148413      -0.00076351      -0.00188572      -4.47664707 F F F      -0.30883801       0.09265244       0.00882952
Ge      34.76455714      31.82883384      14.45964686      -0.00089450      -0.00112985      -0.00119598      -4.40488455 F F F      -0.50013283      -1.03646514      -0.58952216
Ge      36.04251702      33.24082718      15.85933170       0.00180838       0.00312255       0.00124941      -4.40171277 F F F       1.03698121       0.29091049       0.53587686
Ge      37.60733893      28.90744692      14.42634908       0.00231252      -0.00282428      -0.00229938      -4.49859830 F F F       0.22514439      -0.30835190       0.66788567
Ge      38.97461873      30.43836622      16.04057476      -0.00151509      -0.00120428       0.00168323      -4.47235860 F F F      -0.40599311      -0.79700883       0.02668322
Ge      37.56140189      31.65647699      11.67764422       0.00166645      -0.00092027      -0.00158398      -4.48931204 F F F       0.34626540       0.80275035      -0.24853478
Ge      39.12685059      33.21443763      13.18713495      -0.00177779      -0.00172299       0.00179154      -4.42472079 F F F      -0.66207733      -1.18194870      -0.33716571
Ge      34.45192951      28.90525251      17.16623086      -0.00145114       0.00344832       0.00226681      -4.43988302 F F F       0.27253477       0.72126712       0.13509559
Ge      35.94258053      30.13369046      18.75788530       0.00122713       0.00199779      -0.00096221      -4.45348852 F F F       0.77036643       0.86473742      -0.09975980
Ge      34.60054161      31.80688208      20.06132511       0.00131586       0.00064861      -0.00125584      -4.45801507 F F F       0.26217521      -0.84902779       0.83584954
Ge      36.05173019      33.04120806      21.70293851      -0.00293923      -0.00191328       0.00101605      -4.49711171 F F F      -0.34182115       0.35259957       0.06864408
Ge      37.49143716      28.81422559      20.37516038       0.00141739      -0.00262683       0.00003682      -4.44591724 F F F      -0.11642283      -0.00373483      -1.45740189
Ge      38.91196495      30.33671441      21.63345128       0.00052395      -0.00011658       0.00045649      -4.43664450 F F F       0.49813492       0.26195008       0.14774449
Ge      37.47561081      31.90195719      17.40378983      -0.00057184      -0.00264331       0.00242958      -4.47060285 F F F      -0.32516170      -1.05577509       0.18835828
Ge      38.97053556      33.26276361      18.83871221       0.00244369       0.00080845       0.00015013      -4.47718818 F F F       0.10579471      -0.15191371       0.41184410
Ge      34.79422025      28.94716353      23.13480467       0.00040686      -0.00547892      -0.00309913      -4.44485829 F F F      -0.83932425       0.61007344      -0.55164022
Ge      36.05941893      30.36723982      24.69408727       0.00064391       0.00169216      -0.00066080      -4.48328556 F F F       0.83078551      -0.17703776      -0.18112257
Ge      34.64688514      31.87398527      26.07545189       0.00191360      -0.00155349       0.00196690      -4.48858856 F F F      -0.23786378      -0.45344062       0.07198912
Ge      36.15811779      33.05540751      27.59791894      -0.00166012       0.00171014      -0.00119679      -4.49166560 F F F      -0.05244689       0.73473169      -0.37368967
Ge      37.67491803      28.82138599      26.00989721      -0.00035480       0.00233389      -0.00050138      -4.45873611 F F F      -1.17074699       0.30132070      -0.08646683
Ge      39.02607009      30.28293038      27.42054377      -0.00243185      -0.00074603      -0.00157783      -4.46954366 F F F       0.22913544      -0.22370859       0.27159417
Ge      37.56611776      31.69712736      23.16165858      -0.00041271      -0.00143038      -0.00141017      -4.49311615 F F F      -0.42751136       0.02858746       0.30255762
Ge      39.03013326      33.07887638      24.63104849      -0.00105144       0.00128813      -0.00106368      -4.50706910 F F F      -0.43601280       0.45285535      -0.15048629
Ge      34.64626738      29.01146092      29.05586996      -0.00115057       0.00102377       0.00140446      -4.47635588 F F F      -0.38611438      -0.92057237      -0.55052373
Ge      36.10408440      30.31987760      30.42520210      -0.00146934      -0.00090719      -0.00175627      -4.45079056 F F F       0.09357503       0.29167836       0.51764294
Ge      34.65807832      31.86548227      31.80406815       0.00088669      -0.00038598       0.00089884      -4.49678161 F F F      -0.11620572      -0.13569863      -0.49400785
Ge      36.18382976      33.14677690      33.22771452      -0.00211615       0.00031158       0.00073923      -4.49120389 F F F       0.11539108       0.05229889       0.68878790
Ge      37.59648882      28.82750507      31.72833628       0.00118552      -0.00145500      -0.00233811      -4.50232256 F F F      -0.40913853      -0.51741980      -0.17502693
Ge      38.98899587      30.26619181      33.10204159      -0.00187719       0.00105318      -0.00147448      -4.42888271 F F F      -0.16668656      -0.03598716       1.57531012
Ge      37.59843835      31.58366972      28.97870975      -0.00112660      -0.00312998      -0.00001059      -4.46520115 F F F      -0.08333679       0.47826323      -0.31582075
Ge      38.90971556      33.19279536      30.30377238      -0.00187592       0.00265992      -0.00353857      -4.48215703 F F F       0.82501853       0.04990480       0.16339539
Ge      34.58482911      28.85495993      34.54215775      -0.00315768      -0.00150923      -0.00062935      -4.49282792 F F F      -0.68647369      -0.39589953      -0.30388668
Ge      36.00473247      30.14620565      35.96627559       0.00047024       0.00082123       0.00275490      -4.41264185 F F F       0.07128819       1.08844991       0.70804496
Ge      34.80047634      31.85031557      37.48697985       0.00052684       0.00106053      -0.00427268      -4.48433785 F F F      -0.23849781      -0.15780288      -0.12177678
Ge      36.08268685      33.39394361      39.00402135       0.00206862       0.00227576      -0.00121777      -4.47662968 F F F       0.08122332      -0.68178831       0.42238389
Ge      37.37349231      28.78299697      37.45258246       0.00172035       0.00247835      -0.00007646      -4.46562488 F F F       0.20610065      -0.01152548       0.77118568
Ge      38.85672619      30.22251750      38.86480546      -0.00257665       0.00161620       0.00063600      -4.49633648 F F F      -0.10762488       0.57126481       0.09327487
Ge      37.57864549      31.65250195      34.83644278      -0.00044618       0.00041686       0.00259797      -4.45489507 F F F      -0.29486148      -0.23081958      -1.59831172
Ge      38.93918647      33.14112184      36.14937401      -0.00166489      -0.00026548      -0.00094385      -4.48508514 F F F       0.52338375       0.75628140      -0.09700496
Ge      34.68592794      29.02136602      40.39439468      -0.00163799      -0.00086131       0.00080078      -4.47546520 F F F      -0.08622799      -0.34610076       0.17796464
Ge      35.96500052      30.47448973      41.89959146       0.00121303       0.00027766       0.00120173      -4.44080167 F F F       1.32051487      -0.62708495      -0.23801409
Ge      34.65484898      31.96296368      43.22313768       0.00002016      -0.00058011      -0.00038171      -4.45601403 F F F      -0.53685506      -0.02020195       1.04831544
Ge      36.12774591      33.18218747      44.84918078       0.00005669       0.00194662      -0.00266877      -4.46933966 F F F      -0.82526775       0.64902992      -0.42122321
Ge      37.65736342      28.99100524      43.28070929       0.00072043      -0.00068838      -0.00148308      -4.46424737 F F F      -0.20528134       0.45697790      -0.56892397
Ge      39.10866809      30.44640542      44.72388127       0.00151498       0.00293824       0.00330336      -4.49116129 F F F      -0.55979954      -0.46111386      -0.00763757
Ge      37.57399300      31.72389429      40.44340573       0.00244647      -0.00192011      -0.00039399      -4.48107664 F F F      -0.60853082       0.41590048      -0.55101190
Ge      39.02138061      33.21903310      41.77427649       0.00296513       0.00175164       0.00055010      -4.50079413 F F F      -0.29279016       0.08799973       0.59735519
Ge      34.57292745      34.79502164      46.15200706       0.00047351       0.00035630       0.00255799      -4.46502913 F F F       0.57661359      -1.07792458       0.33861671
Ge      36.05758880      35.96935252       1.59049497       0.00094462      -0.00141568      -0.00171828      -4.45714255 F F F       0.16527939      -0.12431730      -0.54962926
Ge      34.66840015      37.41091279       2.91582984       0.00102127      -0.00016691      -0.00185118      -4.47387836 F F F      -0.97997983       0.46689689       0.49969581
Ge      36.13900552      38.94555467       4.27855156       0.00170762      -0.00122250      -0.00284635      -4.43239758 F F F      -1.04794473      -0.49560822       0.26697048
Ge      37.52876823      34.47239500       2.93626651       0.00271350      -0.00017312       0.00270446      -4.46493378 F F F       0.23357790       0.92895699      -0.02132471
Ge      38.86996355      35.95558630       4.50597307       0.00112377      -0.00304084       0.00041099      -4.51088024 F F F       0.37661482       0.35732532      -0.47070677
Ge      37.36618676      37.45903777       0.08910045      -0.00189430       0.00018814       0.00205049      -4.48953932 F F F       0.66741587      -0.37687805      -0.18858345
Ge      38.87042463      38.84114510       1.45502752       0.00137082      -0.00057670      -0.00128272      -4.48788938 F F F       0.31762063       0.17016582       0.60149298
Ge      34.58641386      34.43629634       5.81475370       0.00141569      -0.00005606      -0.00223219      -4.43049043 F F F      -1.03096210       0.29609292      -0.56626323
Ge      36.05708584      35.86193615       7.03711848      -0.00105298       0.00222049       0.00011624      -4.44540702 F F F       0.17886075       0.43506278       1.45311303
Ge      34.61393146      37.19288295       8.66159623      -0.00116335       0.00270419      -0.00243479      -4.50104750 F F F      -0.07635963       0.55302902      -0.44532233
Ge      36.04150171      38.80095937      10.01423588      -0.00050169       0.00180915      -0.00222529      -4.46593307 F F F      -0.19194323       0.09711592       0.65899345
Ge      37.52498443      34.47872575       8.64174138       0.00067389       0.00279029      -0.00150301      -4.49633545 F F F      -0.28794902       0.07049980      -0.69690298
Ge      38.85141903      35.93596141      10.07204295      -0.00051077       0.00165994      -0.00048476      -4.47827066 F F F       0.97697036      -0.04960474       0.49064962
Ge      37.37976451      37.52556674       5.80249307      -0.00250778       0.00102449       0.00004197      -4.47242487 F F F       0.88324814      -0.23829767       0.20518474
Ge      38.89765173      38.92482515       7.34002327       0.00063925      -0.00058542      -0.00216983      -4.47438524 F F F      -0.26909629      -0.40175925      -0.63481199
Ge      34.73906690      34.56210967      11.52208773       0.00097406      -0.00431267      -0.00064326      -4.48822955 F F F      -0.77951780       0.06903092       0.45192874
Ge      36.10891154      36.06213932      12.95263936       0.00253801      -0.00088677      -0.00066782      -4.48963489 F F F       0.55523872      -0.48270754       0.04606502
Ge      34.66023616      37.24948435      14.49596499      -0.00174109       0.00118271      -0.00081261      -4.47360496 F F F      -0.19489671       1.03225783      -0.01721244
Ge      36.05770501      38.95377286      15.80814400       0.00106099       0.00160673       0.00353336      -4.47635314 F F F      -0.40896278       0.15824960      -0.31528018
Ge      37.57294370      34.58935904      14.43021606      -0.00044227       0.00411153      -0.00117901      -4.50539113 F F F      -0.26421054       0.65814644       0.17932989
Ge      38.99271892      36.01000779      15.96101571      -0.00213742      -0.00139426       0.00241627      -4.48280610 F F F      -0.06857675       0.56036293      -1.04289429
Ge      37.56118188      37.48604278      11.52425698       0.00035528      -0.00005210      -0.00235739      -4.48814421 F F F      -0.23233222       0.22499689      -0.04716780
Ge      38.93177414      39.04885544      12.95840933       0.00057134      -0.00184437      -0.00205769      -4.49366127 F F F       0.22345616      -0.37716378       0.63765683
Ge      34.80302488      34.60470294      17.44265555      -0.00089357       0.00074237      -0.00094097      -4.47647888 F F F      -0.45980287       0.38873363       0.31161608
Ge      36.30661787      36.22945354      18.72613013       0.00007678       0.00109181       0.00037264      -4.46798962 F F F      -0.57491706      -1.01598751       0.40000795
Ge      34.71248077      37.58146433      20.04688885      -0.00226208      -0.00357319      -0.00439208      -4.48216807 F F F      -0.52892798       0.20318363       0.54481650
Ge      36.10652163      38.92297952      21.65593816      -0.00155159      -0.00064557      -0.00245635      -4.47726444 F F F      -0.27823035       0.03151527       0.12362391
Ge      37.46460762      34.55306692      20.34562106      -0.00298426      -0.00011154      -0.00087808      -4.43650799 F F F      -0.27754731       0.17488330      -0.81917630
Ge      38.88167330      35.89219289      21.71872963       0.00039498      -0.00018516       0.00106671      -4.45616670 F F F       0.52919164       1.24940642       0.59384366
Ge      37.54559803      37.63722251      17.16042240      -0.00306486       0.00046754      -0.00126796      -4.35610393 F F F       0.14605382      -0.84220560      -0.06580510
Ge      39.02843633      38.81773690      18.56994203      -0.00456598       0.00361761       0.00073045      -4.43957473 F F F       0.76979021       1.30242704       1.29306497
Ge      34.59751288      34.56495332      23.15024759      -0.00011654      -0.00020663      -0.00060808      -4.50113577 F F F       0.53470803       0.40784252      -0.15511812
Ge      36.15315104      35.93383722      24.66140501       0.00057975       0.00049117      -0.00136720      -4.48167606 F F F      -0.58041497       0.33264747      -0.63821811
Ge      34.73682440      37.50485883      26.00691918      -0.00033059      -0.00256848       0.00333200      -4.50310675 F F F      -0.10662257       0.03544523       0.24115017
Ge      36.22921545      38.87419984      27.44761236      -0.00091575      -0.00224044      -0.00287746      -4.45270255 F F F      -0.41177583       0.22509140       0.84656281
Ge      37.57043724      34.54162218      26.08917497      -0.00132113      -0.00114500       0.00081613      -4.49212841 F F F       0.12983695      -0.60434357       0.22982584
Ge      39.06916521      35.91292862      27.48135070       0.00183750      -0.00284886       0.00223227      -4.49705971 F F F       0.56506663       0.42606560       0.46941731
Ge      37.43545091      37.53265360      23.20844689      -0.00076528       0.00005987      -0.00239959      -4.47087468 F F F       0.46996925      -0.96558526      -0.44803969
Ge      38.88368932      38.90906863      24.63847381      -0.00092501      -0.00113820      -0.00081521      -4.49183813 F F F       0.76084670       0.24704117      -0.36233871
Ge      34.61802053      34.67330275      28.80566968      -0.00066382       0.00376831       0.00112105      -4.46847185 F F F       0.61497177      -0.14361044       0.47492678
Ge      36.11940719      36.00721838      30.32135531      -0.00124680      -0.00230137      -0.00057641      -4.51038865 F F F      -0.30265303       0.42119879       0.08406641
Ge      34.67460194      37.59358862      31.72640004       0.00306600       0.00118488      -0.00099990      -4.49839206 F F F       0.29679664      -0.19090229      -0.26490966
Ge      36.14119467      38.92928201      33.22442166      -0.00088315       0.00046743       0.00096692      -4.48753371 F F F       0.44494248       0.30240707      -0.50781037
Ge      37.56447707      34.64403998      31.79580503       0.00066775      -0.00029507       0.00086329      -4.49052656 F F F       0.07561025       0.12113724       0.21843349
Ge      39.02810478      36.13510980      33.24901924      -0.00200595      -0.00022942      -0.00012267      -4.51369605 F F F       0.07505579       0.06115693      -0.23867870
Ge      37.69805571      37.39587304      28.98014185       0.00186559       0.00094339       0.00014700      -4.49244578 F F F      -0.34667360       0.30267428      -0.47262424
Ge      39.03893127      38.97464653      30.38023817      -0.00212340       0.00190148      -0.00099868      -4.48502301 F F F       0.43299568       0.12626978      -0.03909006
Ge      34.67779414      34.62769474      34.60342963      -0.00391125       0.00097601      -0.00123655      -4.51082373 F F F      -0.35462160       0.12813089      -0.22627159
Ge      36.13174741      36.00557079      36.05123750       0.00083061      -0.00322198      -0.00060969      -4.46106442 F F F      -0.73530985       0.61931904       0.20310733
Ge      34.68259160      37.58009018      37.48516588      -0.00003281       0.00206972       0.00003573      -4.50251642 F F F       0.45788791      -0.13762996       0.08780962
Ge      36.12193390      39.03612880      38.96130676       0.00152321       0.00178926       0.00052756      -4.51046240 F F F       0.46676485      -0.11609639      -0.36303725
Ge      37.55159197      34.73484122      37.52181652       0.00054103      -0.00128231      -0.00156160      -4.46464881 F F F       0.22009610      -0.73718998       0.17733562
Ge      39.03915645      36.07483317      38.92806037      -0.00273788      -0.00012032      -0.00028905      -4.47925094 F F F      -0.70113385       0.40994287       0.86320781
Ge      37.50468129      37.53151927      34.74216343      -0.00023980       0.00178399      -0.00312478      -4.49900809 F F F       0.64701078      -0.00376737      -0.52990123
Ge      38.99612981      39.02041182      36.10081270       0.00014982      -0.00012169       0.00144223      -4.41819740 F F F       0.31046241      -0.27456973      -1.01200606
Ge      34.48132130      34.84256773      40.38710778      -0.00172695       0.00206285       0.00177324      -4.48537163 F F F       0.60842332      -0.01572443      -0.11082017
Ge      36.15240281      36.07004718      41.90035639       0.00006806       0.00270160      -0.00399904      -4.44006240 F F F      -0.76973769      -0.59898680       0.24601954
Ge      34.57638372      37.37886080      43.31774251      -0.00302776       0.00032482      -0.00012669      -4.48668407 F F F       0.33742613       0.93872460       0.11651747
Ge      35.93353837      38.93773122      44.95032920       0.00081352      -0.00406698       0.00078120      -4.47906910 F F F      -0.33922856      -0.31329587      -1.08188077
Ge      37.53969141      34.58584213      43.40404110       0.00050519       0.00156749       0.00227839      -4.50734449 F F F       0.54025390       0.20202648      -0.61159429
Ge      39.00697598      36.10455690      44.80794163      -0.00105061       0.00271110       0.00052453      -4.48652791 F F F      -0.85191461       0.19311127      -0.05604518
Ge      37.47031029      37.49997567      40.48259730      -0.00074425       0.00126940      -0.00064417      -4.46538129 F F F       0.74466814       0.32654639      -0.70473479
Ge      38.83190366      38.89511432      42.06098754       0.00035606      -0.00106864       0.00177480      -4.45462085 F F F       0.72445286       0.28912264      -0.90914049
Ge      34.54777653      40.43970025       0.13026505       0.00211062       0.00192428       0.00105930      -4.47616574 F F F      -0.17986041      -0.33773215      -0.21080650
Ge      36.18707717      41.69651019       1.45381298       0.00080892       0.00022102      -0.00075612      -4.47688701 F F F       0.27613448       0.37990020       0.35376972
Ge      34.75123177      43.20677848       2.76298471      -0.00058010      -0.00190065      -0.00181793      -4.46203532 F F F      -0.31279300      -0.52183839       0.89012871
Ge      36.07565994      44.58938148       4.33418939      -0.00056982      -0.00039174      -0.00080151      -4.47934453 F F F      -0.12727109       0.59025962      -0.02066454
Ge      37.60936681      40.34785715       3.05023234       0.00231137       0.00087364       0.00008956      -4.43595346 F F F       0.20495518       0.03635149      -1.36450857
Ge      39.11539022      41.66805947       4.40093157       0.00082265      -0.00106691       0.00184613      -4.47394693 F F F      -0.00725304       0.75895749       0.22076024
Ge      37.61412282      43.24380968       0.10045255       0.00206340       0.00046214       0.00158490      -4.47235908 F F F      -0.43172052      -0.47102370      -0.96627328
Ge      39.00642208      44.69381741       1.45203693       0.00011504      -0.00091313       0.00064143      -4.47576270 F F F      -0.24830470       0.06770973       1.10878888
Ge      34.64978577      40.27220479       5.75921540       0.00102022      -0.00320413       0.00230172      -4.49985577 F F F      -0.19333166      -0.03356591      -0.12046901
Ge      36.07700386      41.61343779       7.23661306      -0.00045147      -0.00036231      -0.00114929      -4.49013524 F F F       0.60868499       0.74085087      -0.17147533
Ge      34.65382941      43.21951850       8.51427211      -0.00248723       0.00016334      -0.00077073      -4.45206019 F F F      -0.16526570      -0.53534096       0.95823351
Ge      35.93926657      44.69721763      10.07724152       0.00066968      -0.00071729      -0.00062556      -4.49435741 F F F       0.53336671       0.07698187       0.16781071
Ge      37.57519555      40.32887974       8.81255045       0.00084764       0.00139390      -0.00098554      -4.46423120 F F F      -0.24264671       0.49158101      -0.03253521
Ge      39.08667682      41.81488221      10.22480360       0.00044588       0.00061779      -0.00011647      -4.50210878 F F F      -0.31316075      -0.02538177      -0.27693280
Ge      37.53763919      43.12942158       5.68771241       0.00243618      -0.00051921       0.00229376      -4.48467215 F F F       0.07108553      -0.15451094       1.00049133
Ge      38.87932069      44.62596376       7.34378876      -0.00072202       0.00098361      -0.00194594      -4.49057452 F F F      -0.24026831       0.03536820      -0.62216758
Ge      34.66592099      40.26586429      11.67673241       0.00132230      -0.00099261       0.00310543      -4.47631526 F F F       0.25152904       0.17420067      -0.46201680
Ge      36.03291451      41.91546338      13.11440300       0.00028975       0.00151820       0.00192704      -4.48572745 F F F      -0.20395747      -0.23022366      -0.32837648
Ge      34.63582053      43.37422667      14.59048606      -0.00197885      -0.00103100       0.00150588      -4.47543426 F F F       0.14345681       0.34233118      -0.78145841
Ge      36.13920204      44.77822348      16.09319987      -0.00035316      -0.00239596      -0.00178759      -4.49162785 F F F      -0.11534430      -0.58167506      -0.04317720
Ge      37.50665549      40.53585075      14.50734574       0.00002692      -0.00036960      -0.00178809      -4.47510208 F F F      -0.00310726      -0.91783094      -0.59708711
Ge      39.01422134      41.86442175      15.84983891      -0.00187031       0.00180470       0.00155087      -4.45960784 F F F       0.04053930       0.19621029       0.50566856
Ge      37.44321343      43.21572940      11.55041993      -0.00079987      -0.00302657      -0.00118824      -4.48515196 F F F       0.17810181       0.23777944      -0.25097730
Ge      38.98204951      44.60580306      12.95612513      -0.00248415      -0.00000395      -0.00244378      -4.50097000 F F F      -0.44703090       0.45417861      -0.08251398
Ge      34.73615983      40.42531442      17.34365278      -0.00046263       0.00273548      -0.00040745      -4.49508837 F F F      -0.70706495      -0.12679842       0.06145365
Ge      36.16302395      41.76193099      18.87204478       0.00201413      -0.00097794      -0.00308884      -4.50028881 F F F      -0.11291395       0.43798735       0.13155942
Ge      34.68163130      43.29552732      20.34404288       0.00057152       0.00070735      -0.00038009      -4.49370192 F F F       0.17534451      -0.23512202      -0.66336161
Ge      36.09158544      44.76687861      21.77288707      -0.00145925      -0.00151727      -0.00153431      -4.50825242 F F F       0.42245860      -0.06972820      -0.16358459
Ge      37.61153349      40.29084716      20.26995388      -0.00192460       0.00123815       0.00054366      -4.46578488 F F F       0.16883264      -0.39072995      -0.80070393
Ge      38.89865858      41.77052045      21.70700392      -0.00099032      -0.00157648      -0.00083346      -4.46341039 F F F       1.14065309      -0.05596558       0.14382323
Ge      37.62707136      43.21661167      17.45100921       0.00043289      -0.00243457       0.00377060      -4.52711003 F F F      -0.18201639       0.30648468      -0.06277027
Ge      39.02600069      44.66781535      18.97480599       0.00145643      -0.00047709       0.00335705      -4.44903530 F F F      -0.04938803      -0.28263719      -0.86765861
Ge      34.69401050      40.39461743      23.13270366       0.00233739       0.00202093      -0.00101938      -4.49426331 F F F      -0.32147191       0.04515076      -0.04238674
Ge      35.91123357      41.95024021      24.69180895      -0.00012805       0.00075330      -0.00236100      -4.47083749 F F F       0.95111808      -0.32914841      -0.65407914
Ge      34.71984147      43.59845838      26.05098641       0.00273844      -0.00227007       0.00123555      -4.41857282 F F F       0.07135554      -0.77857964       0.86418150
Ge      36.28395141      44.95459554      27.49054768      -0.00176600       0.00086894       0.00069593      -4.48257480 F F F      -0.42816391      -0.15489619      -0.49426255
Ge      37.45341438      40.39005983      25.97327706      -0.00037535      -0.00109981      -0.00231003      -4.45262416 F F F      -0.19471135       0.13729178      -0.11921852
Ge      38.88420062      41.75388666      27.40137714       0.00137166       0.00063953      -0.00059203      -4.47177237 F F F       0.95918706       0.38698877       0.11624248
Ge      37.53605184      43.19697097      23.14128834       0.00005299      -0.00084245       0.00227044      -4.48129474 F F F      -0.24252929       0.55309390       0.54827401
Ge      39.20494991      44.62056620      24.50010328       0.00198834      -0.00152039      -0.00032609      -4.50307925 F F F      -0.17499524      -0.14877922      -0.01030322
Ge      34.74693461      40.57848795      28.85898777       0.00070080      -0.00023201       0.00011590      -4.45086252 F F F       0.26469969      -0.06609584      -0.18307597
Ge      36.22490325      42.08583119      30.39695517       0.00174966      -0.00177000       0.00097810      -4.49280991 F F F      -0.13734247      -0.89042495      -0.49109112
Ge      34.73560166      43.45453810      31.81897688       0.00165849       0.00131271       0.00274255      -4.44472999 F F F       0.05430239      -0.13286826      -0.29452683
Ge      36.16656926      44.79820203      33.23740267       0.00125418      -0.00232380       0.00175016      -4.50152738 F F F       0.14566710       0.51986634       0.48606723
Ge      37.65260924      40.46977147      31.80249327      -0.00210977      -0.00121510       0.00078176      -4.49727012 F F F      -0.59617041      -0.15243721       0.07239577
Ge      39.03313443      41.90595673      33.27354764       0.00084634      -0.00040963      -0.00128134      -4.46799861 F F F       0.89742550      -0.50873852      -0.29234434
Ge      37.63570312      43.36664584      28.75384002       0.00082959       0.00092381       0.00461025      -4.44151707 F F F      -0.16046769      -0.10494614       0.71646293
Ge      39.02637722      44.68982472      30.32311821      -0.00212202       0.00004635       0.00193428      -4.47190720 F F F       0.43583441       0.66503998       0.49173844
Ge      34.82817403      40.41790998      34.62940620       0.00014689      -0.00023471      -0.00118489      -4.46004563 F F F      -0.48102678       0.77082800      -0.35337008
Ge      36.13616778      41.92032952      36.09605681      -0.00403551       0.00083560      -0.00057277      -4.48153015 F F F       0.05120585      -0.03649518      -0.01139484
Ge      34.56868527      43.46593518      37.32609777      -0.00099772      -0.00219991       0.00029583      -4.47992711 F F F       0.18503094      -0.61986964       0.90515999
Ge      36.07699705      44.67169408      38.91155315       0.00028819       0.00020308       0.00312951      -4.48388219 F F F       0.57708904       0.05651240      -0.33957282
Ge      37.67582684      40.46600799      37.41943246      -0.00025007       0.00231741       0.00049364      -4.46115824 F F F      -0.81864075       0.37979106       1.38570802
Ge      39.21742251      41.83579030      38.89634719      -0.00456002       0.00039079       0.00141242      -4.42790172 F F F      -1.34332997      -0.54580294       0.74933248
Ge      37.62154721      43.27523842      34.66151662      -0.00104531      -0.00490264      -0.00260642      -4.47772093 F F F      -0.25417985       0.96386335       0.33423655
Ge      39.12204732      44.81675300      36.03672956      -0.00100672       0.00086139      -0.00052025      -4.50308522 F F F      -0.36690623      -0.40339690       0.31675207
Ge      34.71336652      40.51636071      40.34971559       0.00019509       0.00303649      -0.00086030      -4.49488033 F F F      -0.32690083      -0.07923768      -0.09394469
Ge      36.13729243      41.84419553      41.83235999       0.00267057       0.00167858      -0.00069296      -4.45015949 F F F       0.14858718       0.24206300      -0.46170255
Ge      34.67537563      43.13256490      43.31173021       0.00075094       0.00084740      -0.00052020      -4.42324217 F F F       0.60648964       1.13294987      -0.34848302
Ge      36.13349847      44.63977421      44.71741082       0.00049186       0.00384157       0.00237855      -4.51275224 F F F       0.57434000      -0.22577114      -0.02279261
Ge      37.29021920      40.32305670      43.32738950       0.00198203       0.00062147      -0.00156579      -4.45137758 F F F       0.44703932      -0.20861640       0.73743357
Ge      38.87601744      41.64789860      44.74875510      -0.00213555       0.00184649      -0.00031724      -4.47640500 F F F       0.65905942       0.16683368       0.47561300
Ge      37.62252354      43.24577584      40.31625171      -0.00035452      -0.00358964      -0.00144467      -4.51465585 F F F       0.06836432      -0.06292624       0.07907119
Ge      39.11554500      44.58892775      41.83535897       0.00219799       0.00301961      -0.00041906      -4.48964848 F F F       0.36464440      -0.00635583      -0.34130171
Ge      40.35631415      46.11559814       0.03523902       0.00300067      -0.00036313       0.00190990      -4.42290779 F F F       0.31040773       0.74220557       0.45862965
Ge      41.79372725       1.48847916       1.42235726       0.00206115       0.00288092       0.00129766      -4.50567759 F F F      -0.47858482      -0.46660488       0.72838797
Ge      40.19049603       2.87814735       2.89454577      -0.00287451       0.00000190      -0.00157636      -4.49665781 F F F       1.04921990       0.11519896      -0.31377489
Ge      41.84686085       4.11111692       4.36896575      -0.00002116       0.00050879      -0.00042133      -4.47980580 F F F       0.05726814       0.53124323      -0.22710223
Ge      43.18177185       0.05997730       2.99919080      -0.00145539      -0.00091600      -0.00075861      -4.46789294 F F F      -0.38032876      -0.04999539       0.16276613
Ge      44.78692113       1.47616743       4.24291061       0.00331498       0.00385842      -0.00268807      -4.45893793 F F F      -0.45125831      -0.40598959       0.68615362
Ge      43.31283242       2.83342098       0.08305507      -0.00017725       0.00136703      -0.00292461      -4.43988010 F F F       0.26848340       0.61700479       0.30858009
Ge      44.87910955       4.33013315       1.47722771      -0.00116786       0.00149818       0.00122633      -4.52208846 F F F      -0.67520506      -0.17481588       0.01227296
Ge      40.23390394      46.07353574       5.78214917       0.00403424      -0.00397752      -0.00276718      -4.45944434 F F F       0.48032716      -0.79378723       0.33705241
Ge      41.73292800       1.23072419       7.15872526       0.00233028       0.00091320      -0.00490772      -4.47356220 F F F       0.40865720       0.67364291       0.08166250
Ge      40.33959660       2.80490435       8.52048860      -0.00000875       0.00182079       0.00029195      -4.51999643 F F F      -0.23506779       0.20359525       0.17077930
Ge      41.67535416       4.29609780      10.03530783       0.00070690       0.00279041       0.00306209      -4.45773689 F F F       0.14785788      -0.51573856       0.00830249
Ge      43.26830127      46.15416507       8.63239978       0.00080723      -0.00095230      -0.00135244      -4.44237439 F F F       0.68246994      -0.12390626       0.06542478
Ge      44.74979644       1.25116590      10.21026787       0.00234986      -0.00093848      -0.00045428      -4.46736820 F F F      -0.58578918       0.79571907      -0.37266281
Ge      43.29586521       2.70094555       5.83377068       0.00049696      -0.00046360      -0.00147164      -4.49607904 F F F       0.22059676       0.48477890       0.21569974
Ge      44.70346017       4.26724249       7.39546892      -0.00257339      -0.00299913      -0.00112827      -4.50342023 F F F      -0.23931969      -0.25726015      -0.67219042
Ge      40.32721026      46.15015187      11.49598421       0.00047380      -0.00063809       0.00009578      -4.51315974 F F F       0.33523613       0.10885438       0.40146854
Ge      41.81853200       1.38996833      12.98531996       0.00065440       0.00156351       0.00111076      -4.47967739 F F F       0.17427768      -0.61830453      -0.31812425
Ge      40.41654299       2.87281966      14.29805856      -0.00113298      -0.00184246       0.00335631      -4.46281875 F F F      -0.03408872      -0.24888281       0.95546433
Ge      41.78764062       4.21323893      15.88751361      -0.00314486       0.00033765       0.00190053      -4.48780632 F F F       0.01093112       0.17958418      -0.40368309
Ge      43.24608207      46.01001598      14.43624462       0.00117267      -0.00021173       0.00030606      -4.49364250 F F F       0.02646000      -0.02248298       0.08802403
Ge      44.65660354       1.27864376      15.88495797       0.00182391      -0.00085885       0.00042057      -4.48455128 F F F      -0.00017295       0.43339903       0.46850963
Ge      43.12690078       2.82352925      11.44332546      -0.00261261       0.00325755      -0.00140899      -4.50631897 F F F       0.64823813      -0.22588723       0.01703155
Ge      44.61989395       4.27039100      12.85751818       0.00109750      -0.00256937      -0.00129351      -4.45047094 F F F      -0.46742322       0.11019534       0.03223926
Ge      40.34116250      46.18306765      17.52111242       0.00196433       0.00201467       0.00194114      -4.43607149 F F F       0.29214717      -0.91369905      -1.21739012
Ge      41.75560876       1.42617918      18.82651570       0.00013026      -0.00225515      -0.00039380      -4.44754621 F F F       0.47392446      -0.05995406       0.58796610
Ge      40.34829334       2.85402725      20.24664659      -0.00036086      -0.00074459       0.00064011      -4.48887869 F F F       0.43566772       0.91209971      -0.14180443
Ge      41.90033706       4.34670211      21.68446199       0.00013378       0.00250644       0.00174641      -4.49962764 F F F      -0.74749339      -0.49180737       0.12456941
Ge      43.34881378       0.04605324      20.22650306      -0.00187663       0.00110667      -0.00112152      -4.46498186 F F F      -0.48732049      -1.03443908      -0.91429249
Ge      44.66365473       1.35642800      21.67464944      -0.00238055       0.00476462      -0.00034017      -4.39781596 F F F       1.00014487       0.50759289       0.09956354
Ge      43.11963112       2.81010659      17.37435774      -0.00017261      -0.00152692      -0.00204499      -4.48380495 F F F       0.99518506      -0.32432043      -0.48159519
Ge      44.63354282       4.25033811      18.76464989      -0.00037698       0.00020680       0.00158379      -4.49645542 F F F       0.08000639       0.48228088       0.16468548
Ge      40.65399480      46.14022211      23.05742480      -0.00172466      -0.00076240      -0.00171589      -4.45445957 F F F      -1.01958636       0.36525795       0.74516620
Ge      41.99003222       1.40064495      24.58507033       0.00307510       0.00037573      -0.00206810      -4.50938385 F F F      -0.30721188      -0.06024961       0.28018349
Ge      40.43628978       2.80444774      26.05386762      -0.00196717      -0.00147652      -0.00243867      -4.51717104 F F F       0.47567905       0.23703775      -0.22889612
Ge      41.83979602       4.37294498      27.45675726      -0.00143522       0.00308949       0.00179802      -4.48798768 F F F       0.82679139      -0.85567827      -0.31755635
Ge      43.32456579      46.08423162      26.12901833       0.00006178       0.00044419      -0.00000531      -4.43804842 F F F       0.05192303       0.22239159      -1.29470894
Ge      44.75345618       1.35698825      27.36881924       0.00011486       0.00083484       0.00086522      -4.46580958 F F F       0.69066890       0.64186758       0.83219660
Ge      43.31734180       2.80272199      23.06130841       0.00014776      -0.00089829      -0.00043528      -4.47609178 F F F       0.06094270       0.88687090       0.71478551
Ge      44.76090643       4.30532039      24.61487893       0.00262306       0.00045680      -0.00044092      -4.45300908 F F F       0.18807956       0.02744914      -1.36098700
Ge      40.50969360       0.03507732      28.87462996       0.00198392      -0.00292197      -0.00074852      -4.47961254 F F F      -0.38445907      -0.76458692       0.63307795
Ge      41.99033421       1.36423278      30.32581718       0.00140596       0.00047248       0.00095585      -4.48497738 F F F      -0.21346982       0.96138179      -0.61679017
Ge      40.53054510       2.87108368      31.68831054       0.00045550      -0.00116106      -0.00203278      -4.47759044 F F F       0.74474286       1.04023374      -0.08600036
Ge      41.92700804       4.46979652      33.19389986      -0.00360894      -0.00605858      -0.00022546      -4.48307869 F F F      -0.11261685      -0.77093885      -0.02446868
Ge      43.32721043       0.07770303      31.84998582       0.00251312      -0.00319443      -0.00044116      -4.40256907 F F F      -0.14532288      -0.44905621       0.22565197
Ge      44.76343092       1.41280070      33.24215533       0.00115128      -0.00343157      -0.00294893      -4.48278942 F F F       0.32074081       0.53471353       0.58533702
Ge      43.43524200       2.86582394      28.84662484      -0.00041741       0.00142483       0.00395674      -4.49688623 F F F      -0.84486115       0.02298474      -0.02577913
Ge      44.71249487       4.26303941      30.42993654       0.00178001       0.00142945      -0.00446951      -4.48854549 F F F       0.46454320       0.57191538      -0.30167664
Ge      40.36320361       0.15327749      34.47998760       0.00178840       0.00027086       0.00137976      -4.42572746 F F F       1.00382009      -0.59796003       1.51753635
Ge      41.81181699       1.46244846      36.20861258       0.00022768      -0.00096826      -0.00109362      -4.48817865 F F F      -0.23478514       0.23957905      -0.99738220
Ge      40.39438522       2.88387155      37.70519307       0.00317046       0.00022418       0.00250480      -4.45257006 F F F      -0.07949859      -0.37615570      -0.55432020
Ge      41.93837163       4.17410321      39.03715886      -0.00112268       0.00146465       0.00310982      -4.48232295 F F F       0.16231025       0.44200945       0.62169963
Ge      43.32943284      46.12913233      37.33556373      -0.00171886       0.00168342       0.00223731      -4.44305281 F F F       0.67623837      -0.05801504       0.70504360
Ge      44.88771746       1.20356091      38.92397107       0.00040663       0.00033018       0.00220160      -4.48825351 F F F      -0.22206648      -0.01678132      -0.08365924
Ge      43.34448530       2.86992858      34.72692958      -0.00141321      -0.00150276      -0.00118853      -4.49417531 F F F      -0.32114355       0.22824108      -0.25280894
Ge      44.92640975       4.18673597      36.11292036      -0.00282179      -0.00012249      -0.00276328      -4.45658893 F F F      -0.68906650      -0.11890486       0.43350014
Ge      40.66166380      46.06158687      40.37659663       0.00074343      -0.00230642       0.00035968      -4.48155735 F F F      -0.68299910       0.27435530       0.92664730
Ge      42.12725485       1.23459445      41.92777474      -0.00118248      -0.00006936      -0.00084379      -4.48789948 F F F      -0.77459064       0.03054713       0.01603198
Ge      40.50089054       2.67553507      43.28229143      -0.00192175       0.00475775      -0.00138356      -4.47770292 F F F       0.21171120      -0.23605217       0.65847501
Ge      41.79705708       4.16532036      44.86989387       0.00201953       0.00071279      -0.00145002      -4.49346692 F F F      -0.12510586       0.65149404      -0.32194605
Ge      43.40993202      45.98677781      43.49909920      -0.00276546       0.00089225      -0.00204164      -4.46121662 F F F      -0.38856721       0.41829582      -0.03771200
Ge      44.68624422       1.43874043      44.84294091      -0.00089978       0.00198269      -0.00322526      -4.48050628 F F F       0.66670049      -0.67368514       0.31883795
Ge      43.43295947       2.59286091      40.35238598       0.00178624       0.00041931      -0.00215652      -4.47486530 F F F       0.20873771       1.04091417       0.35595425
Ge      44.75329410       4.23978320      41.90079173       0.00073939      -0.00127984      -0.00485683      -4.47879532 F F F       0.04700228      -0.15867990      -0.80060710
Ge      40.41979843       5.84619701       0.12977519      -0.00092074       0.00137022      -0.00038898      -4.46732551 F F F       0.18624666      -0.44372218      -1.09571175
Ge      41.91899120       7.27077371       1.37966172      -0.00047558       0.00141719       0.00294219      -4.45557048 F F F       0.70014856      -0.17913589       0.78927581
Ge      40.39581462       8.62243445       2.78851943      -0.00400759      -0.00173101       0.00269810      -4.46347004 F F F       0.44921989       0.69539210       0.56303658
Ge      41.79906159      10.20520023       4.40228568       0.00150588       0.00017429      -0.00139740      -4.48131963 F F F      -0.49238075      -0.75424536      -0.05426478
Ge      43.30915169       5.70532434       2.97514017       0.00181547      -0.00034288      -0.00217008      -4.49307666 F F F      -0.06069337       0.08822263      -0.34928223
Ge      44.76202494       7.15804813       4.46447683      -0.00166453       0.00177138      -0.00311816      -4.48803317 F F F      -0.04835437      -0.11685086      -0.69159574
Ge      43.48454673       8.66312248       0.00632106      -0.00097160       0.00080825       0.00125132      -4.51065050 F F F      -0.46406126      -0.05601768      -0.31492869
Ge      44.91035961      10.05436122       1.50949543      -0.00052073      -0.00165425      -0.00217813      -4.47314288 F F F      -0.70694346       0.66277522       0.21641872
Ge      40.58753261       5.73242101       5.80046262       0.00051991      -0.00078423      -0.00028269      -4.48686132 F F F      -0.81702545       0.09181559      -0.32468495
Ge      41.93760978       7.28943868       7.22122596       0.00032694       0.00086053      -0.00057152      -4.42438892 F F F       0.05110050      -0.75408356      -0.38556246
Ge      40.41618570       8.56842259       8.54619983       0.00324916       0.00297474       0.00028989      -4.45706017 F F F      -0.97516373       0.89944696       0.75641592
Ge      41.79170802      10.03756750      10.08058301       0.00005601      -0.00257497      -0.00218976      -4.50111849 F F F      -0.12734173       0.31338412      -0.50451071
Ge      43.12799202       5.70710082       8.68959387      -0.00016908      -0.00005448      -0.00253054      -4.47532028 F F F       0.96820953       0.43506557       0.04630424
Ge      44.70646833       7.20135080      10.04946354       0.00011498      -0.00033377       0.00409102      -4.49928023 F F F      -0.13425880       0.01285415      -0.59729416
Ge      43.35449610       8.67906755       5.77877453      -0.00012011       0.00183716       0.00309761      -4.48530087 F F F      -0.31581219       0.39123791      -0.19335362
Ge      44.86078402      10.08199343       7.13677341      -0.00070714      -0.00126662      -0.00038205      -4.47771776 F F F      -0.18431843      -0.16523374       0.08253856
Ge      40.50065478       5.74890108      11.61309822      -0.00096657       0.00182990      -0.00110760      -4.48818458 F F F      -0.49149225       0.17510739      -0.06284475
Ge      41.94421190       7.17337023      13.07281067       0.00208985       0.00015729       0.00192334      -4.49250484 F F F      -0.10110011      -0.02652677      -0.32936561
Ge      40.44771626       8.71668505      14.30046422      -0.00237439      -0.00138941       0.00011141      -4.50660227 F F F      -0.24870197      -0.22631073       0.24971752
Ge      41.85611376       9.99014864      15.91075493      -0.00034652      -0.00110630      -0.00149654      -4.48075918 F F F      -0.34384780       0.45339963      -0.25400033
Ge      43.28364618       5.61590694      14.47589254       0.00032144       0.00159320      -0.00381852      -4.50639061 F F F       0.21338439       0.40862390       0.25974486
Ge      44.69477121       7.10362021      16.01227148       0.00050187       0.00475717      -0.00140998      -4.48594825 F F F       0.14409894       0.01323621      -0.80849370
Ge      43.22682232       8.60519227      11.47028076       0.00390090       0.00025299       0.00034593      -4.48362113 F F F       0.13651528      -0.08014236       0.14919222
Ge      44.60819957      10.10348517      12.86269403      -0.00425288       0.00050223      -0.00077281      -4.47986011 F F F       0.02037644       0.45870713       0.13923027
Ge      40.41236855       5.73619094      17.24001046       0.00325494      -0.00035985      -0.00272204      -4.47308488 F F F      -0.45628098       0.51568773      -0.51508210
Ge      41.74808184       7.16066687      18.74647496       0.00313967       0.00227591       0.00075111      -4.50263125 F F F       0.70687760       0.24458059       0.44335416
Ge      40.31783710       8.60821071      20.21403335       0.00019573      -0.00129210       0.00087677      -4.49279979 F F F       0.10783487      -0.35571601       0.12031583
Ge      41.72990370      10.04586283      21.68665612       0.00250763       0.00132059       0.00040947      -4.46619972 F F F       0.81557753      -0.66539909      -0.64006578
Ge      43.30465789       5.79341742      20.30797954       0.00464048       0.00134482       0.00233115      -4.46333099 F F F      -0.32730341      -0.24013846      -1.22009021
Ge      44.74297885       7.19237712      21.65229045      -0.00129552       0.00158373      -0.00205490      -4.46281962 F F F       0.49394259       0.25730893       0.69108585
Ge      43.29835139       8.62808542      17.34465895       0.00001013       0.00122241       0.00426696      -4.47739016 F F F       0.17421394      -0.10083435       0.70658252
Ge      44.87718283      10.14689916      18.77453426       0.00001434      -0.00095725      -0.00175526      -4.47153462 F F F      -0.32789157      -0.42829042      -0.49088760
Ge      40.29255682       5.70310648      23.11274374       0.00201250       0.00140762      -0.00251865      -4.47802362 F F F       1.00637086       0.54530192      -0.01240558
Ge      41.79085178       7.16648216      24.61503514      -0.00083876      -0.00031914      -0.00056644      -4.50742099 F F F       0.04363143       0.14678454      -0.69136016
Ge      40.44585180       8.69474938      26.06620128      -0.00018557       0.00110103       0.00247109      -4.50652621 F F F       0.51659173       0.31115988      -0.02519161
Ge      42.05346468      10.23943720      27.37348580       0.00224438       0.00049678       0.00168244      -4.48308018 F F F      -1.04903641      -0.56003934       0.51573924
Ge      43.32626081       5.74370426      25.93735982      -0.00213676      -0.00093408       0.00036889      -4.47886809 F F F      -0.28330755       0.24642849       0.64135004
Ge      44.84724556       7.15414040      27.40253001       0.00012314      -0.00289594      -0.00026669      -4.49771927 F F F      -0.40582038      -0.36383154       0.25413591
Ge      43.26575643       8.59200611      23.08716280      -0.00066092      -0.00059671      -0.00001934      -4.51134297 F F F      -0.22425962       0.19326254       0.44589612
Ge      44.75981494      10.08245342      24.54538580      -0.00088697      -0.00172438      -0.00010714      -4.50922723 F F F       0.11693805      -0.55625988       0.27373375
Ge      40.49555709       5.75489397      28.89576750       0.00180989      -0.00081556       0.00200209      -4.45638849 F F F       0.20957591       0.93048078       0.47713173
Ge      41.93319526       7.39586259      30.26714896      -0.00378004      -0.00021225      -0.00016066      -4.49179650 F F F      -0.67837554      -0.49180783      -0.15781992
Ge      40.36911905       8.77992680      31.66344481      -0.00183762      -0.00171232       0.00230622      -4.49683758 F F F       0.42429504      -0.12353556       0.48090944
Ge      41.92722398      10.20042513      33.13028974      -0.00046923      -0.00112591       0.00047132      -4.48766053 F F F      -0.33479689      -0.54490015       0.29598393
Ge      43.28407366       5.93720908      31.70769793      -0.00009665      -0.00097160      -0.00072358      -4.45143776 F F F       0.02084596      -0.76061922       0.01160533
Ge      44.57001628       7.26629712      33.27963693      -0.00189373      -0.00347592      -0.00252835      -4.44765634 F F F       0.93069822       0.06683773       0.01364436
Ge      43.40765479       8.65513270      28.77250319      -0.00003710      -0.00171463      -0.00496616      -4.49376785 F F F       0.21458257       0.61669028      -0.00322464
Ge      44.85197719      10.19041408      30.18330177      -0.00013480      -0.00142992       0.00174428      -4.50061111 F F F      -0.50620408      -0.58519440       0.27551211
Ge      40.30648358       5.84280736      34.49443418      -0.00145877      -0.00243414       0.00069431      -4.45619990 F F F       0.91584752       0.15207653       0.60973078
Ge      41.81805443       7.18553840      36.19356799      -0.00247858       0.00198218      -0.00314638      -4.46204458 F F F       0.08753947      -0.39563197      -1.14360708
Ge      40.38703583       8.59226123      37.53145022      -0.00107082       0.00116431      -0.00191230      -4.47529457 F F F      -0.41105515       0.47516267       0.35261844
Ge      41.89871982      10.10427994      38.88288216       0.00097288      -0.00103074       0.00017093      -4.49548464 F F F      -0.35257768      -0.04386903       0.53803773
Ge      43.27384517       5.59872697      37.50130464       0.00133699      -0.00042442       0.00042595      -4.48985815 F F F       0.38589163      -0.09020137      -0.20757466
Ge      44.72913180       7.06634491      38.87541115      -0.00091879      -0.00011370       0.00141874      -4.49382582 F F F       0.16058451       0.31485539       0.52437081
Ge      43.27351299       8.71292504      34.74814545      -0.00295490       0.00135078      -0.00175640      -4.48587735 F F F      -0.43721237       0.27513438       0.13803925
Ge      44.75768768      10.13566574      36.22629614      -0.00024555       0.00209046       0.00088923      -4.51430820 F F F      -0.05959293       0.06497183      -0.26199461
Ge      40.50205708       5.69276058      40.52973662       0.00154923      -0.00110804       0.00266086      -4.47409610 F F F      -0.53916673      -0.18128446      -0.95280930
Ge      41.87650701       7.16598751      41.87773268      -0.00070120      -0.00055200       0.00014074      -4.47965681 F F F       0.30115946       0.10475113       0.75233678
Ge      40.55428674       8.75725813      43.39693210       0.00131644      -0.00070751       0.00165247      -4.42278908 F F F      -0.17728239      -1.23307920      -0.69175604
Ge      41.90249995      10.15095987      44.76753587      -0.00060929      -0.00185775      -0.00086575      -4.42965995 F F F       0.51734144       0.00479678       1.30949169
Ge      43.27243197       5.57849098      43.34302773      -0.00130757       0.00001913      -0.00099406      -4.49347348 F F F      -0.34240693       0.48490159       0.03885532
Ge      44.77165633       7.12568799      44.64593736       0.00198474       0.00127207      -0.00129957      -4.49182261 F F F      -0.02583135       0.02590190       0.41247545
Ge      43.28792314       8.50585938      40.34010927       0.00130290       0.00061037      -0.00302503      -4.48537225 F F F      -0.12253848       0.26074529      -0.42218446
Ge      44.62466142       9.99739934      41.77317651      -0.00242060      -0.00010476      -0.00072364      -4.47333648 F F F       0.80092204       0.10448014       0.70984477
Ge      40.53812817      11.62281383       0.08299137       0.00164285       0.00040999       0.00005304      -4.50474298 F F F      -0.42802746      -0.25830620      -0.15777327
Ge      42.02502673      13.11125930       1.42079012       0.00262640       0.00231841       0.00205695      -4.48812475 F F F      -0.07659388      -0.67735192       0.22060563
Ge      40.43046078      14.38735636       2.80496805      -0.00359887      -0.00065630       0.00182526      -4.47087709 F F F       0.03067814       1.00103761       0.00437886
Ge      41.82370734      15.95526555       4.28145991      -0.00003611       0.00065070      -0.00156284      -4.50528153 F F F      -0.22383074      -0.62456152       0.02848058
Ge      43.28549923      11.53806951       3.01330976      -0.00322192      -0.00099876      -0.00023356      -4.43516693 F F F       0.06788349      -0.34675142      -1.41502562
Ge      44.62074585      13.00194519       4.34226764      -0.00268279       0.00209954      -0.00272948      -4.41600632 F F F       0.95344964      -0.21084044       0.35671699
Ge      43.40767177      14.49265705      46.06169071       0.00083784       0.00083773       0.00098117      -4.47265719 F F F      -0.07018475      -0.30882253       0.21186080
Ge      44.71756728      15.91376076       1.38917741      -0.00131248       0.00047967      -0.00026934      -4.47358119 F F F      -0.06193717      -0.63377054       0.98275361
Ge      40.34895795      11.76270989       5.82269625       0.00153696       0.00258713       0.00030762      -4.47599862 F F F       0.39396479      -0.45734059      -0.52749353
Ge      41.96424365      12.94282761       7.28981825       0.00193221       0.00037913      -0.00067809      -4.48638161 F F F      -0.31900789       0.45139292      -0.41985915
Ge      40.40812421      14.40518019       8.61800310       0.00039119      -0.00217682       0.00184826      -4.44877530 F F F       0.62888464       0.06946493       0.36220412
Ge      41.74491487      15.96062401      10.08220121      -0.00108503      -0.00176865       0.00180117      -4.51387420 F F F       0.28821917      -0.30738522       0.00610538
Ge      43.39051703      11.41943125       8.60147482      -0.00070938       0.00030853      -0.00254633      -4.49963047 F F F      -0.22119857       0.08768491       0.74542431
Ge      44.73343358      12.97677760      10.09128061       0.00201545      -0.00062621       0.00079709      -4.48906385 F F F      -0.52595675       0.15598267      -0.26874539
Ge      43.29154410      14.46263010       5.75356049      -0.00095752       0.00365363      -0.00063483      -4.48496940 F F F      -0.73758886       0.13981438       0.10686776
Ge      44.64729747      15.84996270       7.23646346      -0.00071913      -0.00092677       0.00071098      -4.46056981 F F F       0.63887435      -0.60572138       0.25476072
Ge      40.28902249      11.59068598      11.42730207      -0.00354370       0.00234175       0.00065970      -4.43606856 F F F       1.18552196       0.80662281      -0.42759985
Ge      41.84588449      13.02208618      13.03013984      -0.00048780       0.00029763      -0.00108495      -4.43240431 F F F      -0.14176769      -1.10682603      -0.82311454
Ge      40.38437515      14.36737668      14.33487894       0.00064566       0.00268719       0.00205833      -4.44962555 F F F      -0.45538480       1.00631575       0.84115519
Ge      41.87088136      15.73694339      15.91685884      -0.00010343      -0.00212120      -0.00129600      -4.51278747 F F F      -0.35696612       0.35628151      -0.07730542
Ge      43.21390903      11.47815445      14.45725037       0.00260151       0.00033917       0.00058270      -4.50074065 F F F       0.52305722       0.40383691       0.15358922
Ge      44.74032990      12.95590638      15.99053045      -0.00102580       0.00123127      -0.00121970      -4.47454789 F F F       0.18105071      -0.02068761      -0.98976785
Ge      43.18745833      14.42512091      11.52342658       0.00228483      -0.00428708      -0.00102241      -4.49883089 F F F       0.20181610       0.06874522      -0.49224491
Ge      44.65386249      15.79820399      12.95786812      -0.00220677      -0.00370254      -0.00144177      -4.50220207 F F F       0.33962245       0.35161107       0.17732089
Ge      40.34163067      11.51186465      17.23788370      -0.00256402       0.00179130      -0.00201849      -4.47945113 F F F       0.65282490      -0.53753691       0.70323861
Ge      41.82677437      12.89461076      18.73626370       0.00050528       0.00198092      -0.00201855      -4.49878659 F F F      -0.63471817      -0.00819879       0.33890675
Ge      40.34750057      14.35816143      20.23774954       0.00045676      -0.00181385       0.00040085      -4.51517695 F F F       0.58157741      -0.19715843       0.32972152
Ge      41.90550545      15.84576129      21.66343877       0.00110108      -0.00077151      -0.00256004      -4.49679576 F F F      -0.31991104      -0.70245930      -0.03867571
Ge      43.19352230      11.35017448      20.08622376       0.00068250      -0.00114415       0.00098738      -4.46467535 F F F       0.15449338       0.57602787       0.83647197
Ge      44.65203181      12.75990497      21.67802391      -0.00050537      -0.00209528      -0.00182958      -4.48664361 F F F      -0.21414506       0.55719138      -0.33213612
Ge      43.30218945      14.34822638      17.45398405       0.00096922       0.00113319      -0.00086348      -4.45114638 F F F      -0.18430440       0.08813534      -0.75677403
Ge      44.69695317      15.78234417      18.82323486       0.00023966       0.00133069       0.00059080      -4.48991625 F F F       0.77766992       0.27048517       0.02488530
Ge      40.41798166      11.39816327      23.15850107      -0.00335252       0.00008943       0.00052743      -4.46197804 F F F       0.11634215       1.04044556       0.65197999
Ge      41.95596852      12.91852692      24.62594510       0.00069078       0.00063322      -0.00010687      -4.48843463 F F F      -0.66208932       0.49264797      -0.78697056
Ge      40.39185336      14.39290272      25.94213842      -0.00103891       0.00083406      -0.00172167      -4.50882781 F F F       0.33312004      -0.16239941       0.12473039
Ge      41.90192923      15.88998612      27.34651498       0.00491670      -0.00227639      -0.00135781      -4.49200772 F F F      -0.87552597      -0.01695609       0.15598523
Ge      43.46960299      11.66477786      26.03218252      -0.00236982       0.00032230      -0.00053133      -4.41060955 F F F       0.26516773      -0.50752836      -0.36696639
Ge      44.82118656      13.01612588      27.54260576       0.00095860      -0.00278868       0.00222987      -4.49695869 F F F      -0.01392316       0.66175005       0.27553999
Ge      43.37534697      14.42271735      23.16033137       0.00067621       0.00230592      -0.00259319      -4.49095507 F F F       0.11993888      -0.05695165      -0.11788626
Ge      44.84650421      16.03174615      24.57336603       0.00081016       0.00317169      -0.00016909      -4.48610821 F F F      -0.34490091      -0.86010889      -0.05403650
Ge      40.44838138      11.68175370      28.82161541      -0.00363818      -0.00017838       0.00065537      -4.48974334 F F F       0.41320440      -0.60097212       0.22910556
Ge      41.88298216      13.09759977      30.41102994       0.00007794      -0.00085146      -0.00461654      -4.47409645 F F F      -0.49501575      -0.10710709      -0.78721449
Ge      40.33575389      14.49750985      31.69684905       0.00021254      -0.00146903       0.00050263      -4.48000773 F F F       0.14330970      -0.23087941       0.58521546
Ge      41.77999372      15.87484697      33.17258936       0.00280732      -0.00045416      -0.00131401      -4.49266238 F F F       0.06754329       0.40258665       0.15824623
Ge      43.34918852      11.58914907      31.64777350      -0.00219007      -0.00334312       0.00014313      -4.47898161 F F F       0.43942981      -0.13829294       0.19110787
Ge      44.83472645      12.93527439      33.13369759      -0.00061299      -0.00369894      -0.00021636      -4.49809707 F F F      -0.20279644       0.22088221       0.55078357
Ge      43.22972954      14.55331711      28.93655003      -0.00215524       0.00088553       0.00209622      -4.48658885 F F F       0.64196588      -0.59194075      -0.40605332
Ge      44.73631626      15.96971267      30.26879417       0.00508878       0.00071954       0.00350404      -4.48358717 F F F       0.03338183      -0.27494371       0.61189671
Ge      40.40487851      11.50696477      34.62635654       0.00145698       0.00326928       0.00139775      -4.51314549 F F F       0.04777460       0.41703668       0.13425695
Ge      41.74652169      13.04414485      36.21815857      -0.00048147      -0.00024734       0.00157339      -4.43507202 F F F       0.07393986      -0.11506562      -1.63078916
Ge      40.30693406      14.49230287      37.48639423       0.00118274      -0.00376577       0.00079035      -4.44905889 F F F       0.37374772       0.32052559       0.72711282
Ge      41.96363841      15.91872276      38.85819294      -0.00093886       0.00021017      -0.00323157      -4.51015412 F F F      -0.59435912      -0.03439548       0.02917553
Ge      43.26216384      11.72067978      37.52445874       0.00051046      -0.00015798      -0.00061703      -4.44741043 F F F       0.64279659      -0.83086998       0.71196716
Ge      44.72026128      12.98835451      39.15761230       0.00114203       0.00022477       0.00021044      -4.46830408 F F F       0.75367101       0.06771556      -0.77846548
Ge      43.20792086      14.34605671      34.54262662       0.00384765      -0.00083367       0.00071651      -4.48157275 F F F       0.47407833       0.14102720       0.56815460
Ge      44.73673700      15.89077206      36.01283146       0.00011913       0.00162071       0.00116754      -4.46831933 F F F       0.19414051      -0.49676142      -0.61588827
Ge      40.37564189      11.50821405      40.44585707      -0.00182002      -0.00200210       0.00133254      -4.48934863 F F F       0.32557298       0.05595467      -0.69415960
Ge      41.81244001      13.03716260      41.80019950      -0.00240568      -0.00190393       0.00023067      -4.48064704 F F F       0.04748633      -0.26419661       0.82484214
Ge      40.41555378      14.45091837      43.43801892      -0.00478733       0.00142984      -0.00163855      -4.48286542 F F F       0.28174231      -0.01266541      -0.79465673
Ge      41.91828025      15.91964164      44.77518969      -0.00166372       0.00058246      -0.00266768      -4.47177209 F F F      -0.50724816       0.51888314      -0.30380365
Ge      43.30101700      11.46228789      43.32572711      -0.00060978      -0.00299199       0.00017163      -4.46209685 F F F      -0.13733384       0.74140876      -1.27722203
Ge      44.76118364      12.99597030      44.57935391      -0.00291951       0.00132995       0.00274861      -4.46592050 F F F       0.10565973      -0.16797916       0.87103129
Ge      43.30919247      14.51118653      40.46894377       0.00093089       0.00078333      -0.00054185      -4.47545213 F F F      -0.22208469       0.07172461       0.01473588
Ge      44.70061201      15.92402922      41.98287758      -0.00096030      -0.00183842       0.00404500      -4.49254682 F F F       0.63527302      -0.11059493      -0.57910905
Ge      40.17490251      17.22401251      46.11798148      -0.00113832      -0.00175197      -0.00407442      -4.47036317 F F F       1.26330555       0.59887081      -0.19897037
Ge      41.73218397      18.74352401       1.37012756       0.00013805      -0.00134328       0.00071512      -4.50903079 F F F      -0.13311243      -0.00060268      -0.43255722
Ge      40.30547722      20.15138329       2.84851835       0.00190541      -0.00132266       0.00075555      -4.48739444 F F F      -0.10328086      -0.04610573      -0.13381768
Ge      41.74825218      21.61029687       4.19289567       0.00087938       0.00021943       0.00016479      -4.47150236 F F F       0.35495773       0.18168687       0.52724975
Ge      43.22629320      17.39007057       2.81528727       0.00014810      -0.00102886       0.00100028      -4.48572362 F F F      -0.00266917      -0.28239546      -0.13219573
Ge      44.65331180      18.73986619       4.29356681       0.00159457       0.00216648       0.00097187      -4.50842039 F F F      -0.04361262       0.30684027       0.49009741
Ge      43.21997079      20.28031476      46.14192743      -0.00083150       0.00272850      -0.00220522      -4.50549079 F F F       0.33393520      -0.54867816       0.67943223
Ge      44.65701191      21.69479893       1.51890786      -0.00190676      -0.00100887       0.00043952      -4.45259250 F F F      -0.53249798      -0.08926703      -0.89251513
Ge      40.27344532      17.18953080       5.80768701       0.00046279      -0.00002470      -0.00589899      -4.50826139 F F F       0.09496325       0.64894451      -0.31189942
Ge      41.77536963      18.71407730       7.15612851       0.00129172      -0.00090736       0.00113512      -4.48057321 F F F       0.03298450       0.51203826      -0.51265492
Ge      40.50777413      20.23360006       8.66055726       0.00170318       0.00260186      -0.00259587      -4.47394285 F F F       0.19929202       0.20650824       0.17060461
Ge      41.87153812      21.77701004      10.25136486      -0.00245001       0.00488539      -0.00059474      -4.47055503 F F F      -0.56940353      -0.01224158      -0.81665894
Ge      43.24922266      17.36688505       8.53225116       0.00144566      -0.00093692       0.00191499      -4.46378216 F F F      -0.32157662      -0.42901300       0.93901235
Ge      44.64948101      18.66826360      10.11039102      -0.00099478      -0.00322924       0.00048140      -4.49001435 F F F      -0.25910447       0.69548857      -0.41090726
Ge      43.21404652      20.30694051       5.73535278      -0.00011677      -0.00147477      -0.00038112      -4.50326703 F F F       0.13735665      -0.71462360      -0.03048270
Ge      44.75822527      21.63363380       7.22919713       0.00283842       0.00092346      -0.00030651      -4.50715709 F F F      -0.21493676      -0.02824644      -0.11200133
Ge      40.35912985      17.28476128      11.68864007       0.00050534      -0.00198112      -0.00099938      -4.44205619 F F F      -0.37785083       0.42683303      -1.06049010
Ge      41.86177110      18.67492614      13.03349986      -0.00071546      -0.00255211       0.00094411      -4.49362209 F F F       0.32689853       0.52627491       0.13446550
Ge      40.33703340      20.16679585      14.38800159       0.00433843       0.00328327       0.00062105      -4.48345020 F F F       0.67280803       0.31941612       0.00030304
Ge      41.82110481      21.67678310      15.84582254       0.00007874       0.00068142      -0.00154664      -4.49579051 F F F       0.24273361      -0.11887721      -0.35288038
Ge      43.35288119      17.26356708      14.54815638      -0.00042157       0.00484271      -0.00151867      -4.50027564 F F F      -0.38933147      -0.02803121      -0.23835534
Ge      44.62820662      18.83298163      16.02619905      -0.00091087       0.00425818      -0.00035322      -4.48220735 F F F       0.05966061      -0.51632286      -0.15090133
Ge      43.25412329      20.26158521      11.50740845       0.00114290      -0.00048151       0.00268139      -4.47672053 F F F       0.23616420      -0.81657463       0.75517513
Ge      44.73944083      21.63669473      13.01863195       0.00096175       0.00238079      -0.00219196      -4.48784235 F F F      -0.40765381      -0.14537901      -0.27321328
Ge      40.38740068      17.28279302      17.35106760       0.00090594      -0.00002733      -0.00117771      -4.48435478 F F F      -0.48346729      -0.54888086      -0.82614375
Ge      41.84290118      18.58574456      18.75613279      -0.00148704       0.00130083      -0.00283594      -4.45874911 F F F      -0.23944919       1.07879372       0.18320627
Ge      40.31834542      20.08714375      20.15797311       0.00034772       0.00026500      -0.00237237      -4.48136727 F F F       0.66535963       0.65864569      -0.33278298
Ge      41.92714945      21.66441158      21.47969965      -0.00174701       0.00314970      -0.00283439      -4.48967669 F F F      -0.81368919      -0.11626319       0.36555573
Ge      43.28557841      17.24240106      20.18716831      -0.00004728       0.00004831      -0.00076697      -4.45387372 F F F       0.05884510      -0.06062296       0.16584658
Ge      44.71187548      18.75627721      21.49643001      -0.00204561       0.00105903      -0.00384474      -4.47172800 F F F       0.51500473      -0.15080638       1.17965012
Ge      43.18757973      20.23884437      17.40802452      -0.00089543      -0.00243809      -0.00011403      -4.50022098 F F F      -0.21799999       0.08338907       0.14618900
Ge      44.72186603      21.60441872      18.86988151       0.00098177      -0.00075941       0.00221324      -4.47822669 F F F       0.02122769       0.47230815      -1.08601999
Ge      40.39082667      17.18806116      23.06572508       0.00009350      -0.00032684      -0.00181731      -4.47407820 F F F       0.67374511       1.09824010       0.18328455
Ge      41.86630426      18.83487763      24.51870353      -0.00002223      -0.00170824      -0.00051806      -4.47089612 F F F      -1.02225494      -0.04133911      -0.71300136
Ge      40.24392508      20.26808356      25.86211883       0.00259139      -0.00062904       0.00160353      -4.48069302 F F F       1.19919690       0.22046994       0.18456962
Ge      41.79929971      21.65585105      27.39728032       0.00027281      -0.00285830       0.00049361      -4.48368037 F F F       0.40789544      -0.81892862      -0.16450865
Ge      43.20060699      17.36535149      25.88212447      -0.00101486       0.00020541      -0.00129009      -4.45017763 F F F       0.97354546       0.17923356       0.57299477
Ge      44.71580994      18.85242528      27.34496200      -0.00034429       0.00001552       0.00086294      -4.48869953 F F F       0.09080452      -0.51940477      -0.00949642
Ge      43.28955109      20.22734647      22.99532002      -0.00178356       0.00013469       0.00066814      -4.49265722 F F F       0.21736665      -0.01028603       0.02465902
Ge      44.69620354      21.66688031      24.53886650       0.00043146      -0.00075428       0.00002369      -4.50860924 F F F       0.34298592      -0.12149373       0.01098753
Ge      40.34865418      17.36898414      28.73633835      -0.00396795       0.00277325      -0.00174658      -4.52289656 F F F       0.55877406       0.28097906       0.07500537
Ge      41.78960478      18.88269413      30.20601825      -0.00196318       0.00053788      -0.00076355      -4.47611388 F F F       0.03085865      -0.96116625       0.42819021
Ge      40.31300088      20.29478666      31.62982337       0.00125469      -0.00308992       0.00121828      -4.50452918 F F F      -0.07659431       0.41935177      -0.05256518
Ge      41.78889499      21.66853845      33.13843776       0.00112737       0.00557045       0.00067325      -4.48010668 F F F      -0.55233957      -0.23939643       0.56294151
Ge      43.25261792      17.32354463      31.75106884       0.00179411      -0.00183132       0.00023822      -4.49888132 F F F      -0.36394702       0.37754860      -0.41266047
Ge      44.70601959      18.83643254      33.08480049      -0.00062000       0.00028173      -0.00230125      -4.49626632 F F F      -0.19058882      -0.39832801       0.55009690
Ge      43.38210884      20.21081993      28.91302210      -0.00247905      -0.00201742      -0.00139123      -4.45691426 F F F      -0.49927720       0.82501777      -0.61477301
Ge      44.73625859      21.79587348      30.28127510      -0.00167544      -0.00128514       0.00114837      -4.51190538 F F F       0.05897470      -0.15248363       0.00328015
Ge      40.33865605      17.44438324      34.58501184       0.00266246      -0.00093736       0.00193078      -4.49624145 F F F       0.29373107      -0.02567212       0.13509666
Ge      41.72050536      18.96151202      36.13115973      -0.00027096      -0.00099838      -0.00031299      -4.47524765 F F F       0.11743610      -0.72405175      -0.61284245
Ge      40.25006977      20.33531486      37.56403221      -0.00184884      -0.00096747       0.00294607      -4.49735504 F F F       0.09021669       0.11263855       0.01818628
Ge      41.72697354      21.76579746      38.96587432       0.00085754       0.00235978       0.00190473      -4.49813637 F F F       0.68316385       0.30658409      -0.65444687
Ge      43.26123463      17.35333454      37.27460207      -0.00175740       0.00102571      -0.00282363      -4.44174425 F F F       0.03323827       0.54596356       1.13922239
Ge      44.66145844      18.78657980      38.97783344       0.00115094      -0.00186149       0.00147717      -4.47208324 F F F      -0.21994181       0.28889476      -1.21685478
Ge      43.23047721      20.21380830      34.59131514       0.00003618      -0.00195253      -0.00011789      -4.50134035 F F F      -0.10510940       0.02667096      -0.19260748
Ge      44.69734663      21.57168163      36.04354096      -0.00382982      -0.00186869      -0.00040993      -4.42919141 F F F      -0.87773675       0.78529782       0.08282309
Ge      40.47709284      17.39251327      40.30754074       0.00120289       0.00008717      -0.00353036      -4.50119963 F F F       0.35820065      -0.46240816       0.21054596
Ge      41.92250338      18.79907939      41.76336017       0.00021129       0.00100933      -0.00244919      -4.50131713 F F F      -0.29633675      -0.02385451       0.48205208
Ge      40.44111448      20.15965192      43.29538217       0.00123846      -0.00009358       0.00264882      -4.49954918 F F F      -0.09336182       0.22585296      -0.62038235
Ge      41.72213972      21.63770720      44.80117886       0.00048672       0.00056498       0.00168235      -4.44767869 F F F       0.13036106       0.38786573      -0.37794219
Ge      43.37809604      17.45847602      43.31464392       0.00159466      -0.00012529       0.00204453      -4.48455709 F F F      -0.77837590      -0.22627295       0.22785457
Ge      44.80133065      18.84824638      44.76893103      -0.00095063      -0.00022429      -0.00187085      -4.50038896 F F F      -0.48554966      -0.14982990       0.49287814
Ge      43.20472536      20.29950791      40.32298131       0.00137893       0.00339485       0.00133949      -4.47242496 F F F       0.20377820      -0.03034229      -0.03690158
Ge      44.57033133      21.65400504      41.88537795      -0.00429115      -0.00393674      -0.00178101      -4.51033980 F F F      -0.18231160       0.47875582      -0.12022188
Ge      40.45597227      23.25182353       0.00024143      -0.00156813      -0.00142158      -0.00320998      -4.41930797 F F F      -1.57696892      -0.97123380      -0.13935045
Ge      41.60603209      24.62306460       1.53940465       0.00138533      -0.00016257      -0.00217533      -4.40631321 F F F       1.13377291       0.12223695       0.52957907
Ge      40.28946984      26.07669255       3.00565895      -0.00225391       0.00093183       0.00382135      -4.50482094 F F F      -0.57726181      -0.05860545       0.11144529
Ge      41.78591015      27.48480280       4.40005471      -0.00246018       0.00227769      -0.00095681      -4.51530205 F F F       0.10250912       0.13958991      -0.09245786
Ge      43.17468834      23.11302295       2.83494410      -0.00054488      -0.00021638      -0.00007818      -4.51092701 F F F      -0.13360065       0.56595103       0.58895718
Ge      44.61070556      24.53421744       4.45345677      -0.00044667       0.00059502      -0.00049610      -4.41603725 F F F      -0.05863788      -1.34624176      -0.53784019
Ge      43.21277257      25.92981897       0.20256850       0.00050897      -0.00027879       0.00314824      -4.50600589 F F F      -0.28764933       0.20339054      -0.81544194
Ge      44.65946095      27.37087897       1.53921241       0.00232327      -0.00058268       0.00272509      -4.47669900 F F F      -0.12357854       0.49132886       0.00170093
Ge      40.54545852      23.00215721       5.88680706       0.00100488      -0.00279404       0.00012553      -4.45603793 F F F      -1.05638328      -0.03841423      -1.03548847
Ge      41.83355405      24.48891347       7.24496150      -0.00000753       0.00143728       0.00059146      -4.47896386 F F F       0.84666844       0.36020364       0.44968258
Ge      40.47765831      25.97432204       8.69991311      -0.00077808       0.00229360      -0.00186677      -4.46832935 F F F      -0.09588665       0.25615582      -0.49640095
Ge      41.86769605      27.28746183      10.22510132       0.00019776       0.00001131       0.00061232      -4.49164691 F F F      -0.00815080       0.85858787       0.06443015
Ge      43.36333873      23.10488435       8.72114269       0.00121279       0.00049376       0.00124701      -4.51639692 F F F       0.11858005       0.24666728      -0.02458345
Ge      44.97954439      24.52988210      10.10662424      -0.00321812      -0.00133295      -0.00231637      -4.46630445 F F F      -0.62208171      -0.12935518      -0.86863992
Ge      43.21750939      25.96959562       5.75018275      -0.00019356      -0.00014462      -0.00117539      -4.46538098 F F F      -0.52483156       0.17915307       0.58252522
Ge      44.64197728      27.33665446       7.22872820      -0.00380217       0.00116094      -0.00343452      -4.47116830 F F F       0.19503865       0.34858445      -0.02675141
Ge      40.31027392      23.16348527      11.65668937       0.00067317      -0.00180565       0.00189166      -4.49083342 F F F       0.87706471       0.36451872      -0.16468317
Ge      41.95272624      24.59098288      13.09838227      -0.00251956       0.00501987      -0.00206445      -4.48048327 F F F      -0.24388422      -0.25241774      -0.88631636
Ge      40.49797507      26.05422307      14.44929504       0.00060804      -0.00224067       0.00129254      -4.45834605 F F F      -0.58585405      -0.40177980      -0.01874205
Ge      41.75707657      27.43444465      15.98941012       0.00048600       0.00007682      -0.00073984      -4.47398568 F F F       0.85823613       0.64604764       0.40902115
Ge      43.44775516      23.19481698      14.43521941      -0.00255522       0.00056093       0.00243663      -4.48365610 F F F      -0.52833427      -0.43487407       0.74405688
Ge      44.89973692      24.63745787      15.92076603       0.00131348      -0.00088271       0.00033253      -4.46460262 F F F      -0.59693519      -0.67652101       0.09971921
Ge      43.44310100      25.85609887      11.45701315       0.00057276       0.00051305       0.00133228      -4.43925158 F F F      -0.69789993      -0.12626295       0.66228303
Ge      44.68212262      27.28421499      12.99312946       0.00098852      -0.00208432      -0.00119320      -4.47415644 F F F       0.26006362       1.12747271      -0.26536580
Ge      40.33324752      23.03366762      17.27892207       0.00112629      -0.00174406       0.00143127      -4.46776339 F F F      -0.34490340      -0.08798160      -0.02830058
Ge      41.89169937      24.41286242      18.60513440      -0.00236686      -0.00025555      -0.00007520      -4.46064439 F F F      -0.19546476       0.91238644       0.52890876
Ge      40.38257833      25.91992044      20.14973506      -0.00174754       0.00433602      -0.00181625      -4.43573095 F F F       1.12249578       0.54497566      -1.06671748
Ge      41.90854739      27.41858585      21.56491401      -0.00044635      -0.00036371      -0.00210533      -4.49533274 F F F      -0.23645112       0.18314996       0.45371062
Ge      43.37407584      23.19958278      20.15831650       0.00057439      -0.00060403      -0.00317863      -4.46712467 F F F      -0.13850199      -0.21331635       0.39719115
Ge      44.71078522      24.57173007      21.82037507       0.00083010       0.00343381      -0.00362094      -4.43729466 F F F      -0.07776103       0.14746629      -1.01977769
Ge      43.40595978      26.01711661      17.36313774       0.00029596      -0.00092310      -0.00151457      -4.50015150 F F F      -0.54917335       0.05590081      -0.12997774
Ge      44.81024270      27.43471209      18.89008439      -0.00175780       0.00059904       0.00154348      -4.50572564 F F F      -0.00531115      -0.21863491       0.11906800
Ge      40.43950710      23.18475553      22.98410945      -0.00117896      -0.00083355       0.00200813      -4.47708326 F F F       0.16020289      -0.88524614      -0.55082966
Ge      41.83189451      24.49686488      24.44751908      -0.00139040      -0.00075750      -0.00247720      -4.46855378 F F F       0.70126469       0.46090234       0.30290211
Ge      40.48402614      25.97431709      25.85808722      -0.00167753      -0.00171933       0.00332254      -4.48945443 F F F      -0.06974723       0.45088189       0.27450032
Ge      42.10964421      27.43413292      27.22497358       0.00232864      -0.00005530      -0.00050579      -4.48714645 F F F      -0.85730874      -0.29744213       0.65132709
Ge      43.25411291      23.11541402      26.00450860       0.00008244      -0.00117170       0.00039392      -4.50735660 F F F      -0.08869379      -0.23804786      -0.42300675
Ge      44.74190665      24.56037683      27.35206426      -0.00023321       0.00156372       0.00074620      -4.46534252 F F F      -0.05083930      -0.03441339       0.25493436
Ge      43.35144784      26.04304254      23.16483502      -0.00008691       0.00145622       0.00148284      -4.48850192 F F F      -0.44144461       0.50764989       0.25431600
Ge      44.88362609      27.47559937      24.66679662      -0.00220553       0.00027904      -0.00073590      -4.47801854 F F F       0.11961810      -0.60509685      -0.63036602
Ge      40.37406784      23.11758230      28.68098748      -0.00072692       0.00112305       0.00211153      -4.47342974 F F F      -0.44213759       0.38187073       0.35934480
Ge      41.73177212      24.50672939      30.23220609       0.00001874       0.00197843      -0.00213572      -4.47545650 F F F       0.53207854      -0.56840614       0.23790489
Ge      40.32863108      25.94712515      31.58404922       0.00248503       0.00391383       0.00107330      -4.48880683 F F F      -0.13763819       0.35674203       0.85900921
Ge      41.80911682      27.41694891      33.11596547       0.00182021       0.00223314      -0.00008441      -4.48884432 F F F      -0.23644712      -0.07770562       0.10061337
Ge      43.22655923      23.07913762      31.82641302       0.00077855       0.00175787       0.00147692      -4.46760126 F F F       0.32728928       0.83876487      -0.84664085
Ge      44.79494275      24.60250626      33.11902452      -0.00174217      -0.00032140      -0.00024612      -4.49675084 F F F      -0.02535677      -0.58294633      -0.07674761
Ge      43.27325562      25.86310903      28.88677319       0.00311569      -0.00339813      -0.00054472      -4.46855324 F F F       0.23352595       0.86303046      -0.44674003
Ge      44.60487502      27.50992056      30.28184868      -0.00111138      -0.00145195      -0.00279356      -4.49214141 F F F       0.15761946      -0.30486480       0.42518845
Ge      40.29293145      23.14580763      34.61220609       0.00272472       0.00189616       0.00126046      -4.51308328 F F F       0.43452516      -0.24373363       0.14411623
Ge      41.87344769      24.61725779      36.00360377       0.00388809      -0.00192061       0.00523203      -4.44567891 F F F      -0.11066564      -0.18392250      -1.19319832
Ge      40.42639879      25.97675581      37.35404820       0.00043856       0.00041884      -0.00216169      -4.45931967 F F F      -0.69912942       0.25108902       0.93289038
Ge      41.78534991      27.29256165      38.98840588       0.00011502       0.00181504      -0.00072000      -4.50613925 F F F       0.09575216       0.33961451       0.00528022
Ge      43.26297890      23.22994112      37.39899330       0.00183152      -0.00012345       0.00101841      -4.47414164 F F F       0.38516877      -0.92901147       1.09805157
Ge      44.76956055      24.59650755      38.99527837       0.00076879      -0.00057858      -0.00165276      -4.50201541 F F F      -0.16151049      -0.36847123      -0.37089971
Ge      43.34605029      26.02718995      34.46240099      -0.00054516      -0.00034412       0.00178887      -4.48100389 F F F      -0.58997921      -0.12311959       0.52525343
Ge      44.59425820      27.42407689      36.07136245      -0.00195674       0.00117315      -0.00066641      -4.49703638 F F F       0.19776177       0.84223885      -0.34251406
Ge      40.43244045      23.24614386      40.41207736       0.00105851       0.00306073       0.00174904      -4.47018449 F F F      -0.61283732      -0.30968059       0.04229010
Ge      41.76467579      24.58329561      41.98734717       0.00273183       0.00138804      -0.00000640      -4.43149550 F F F      -0.01917238       0.00357382      -0.60722684
Ge      40.31473808      25.93751635      43.38316801      -0.00004470       0.00183524      -0.00123962      -4.48072574 F F F       0.05664703       0.59090459       0.40238490
Ge      41.80490387      27.38253276      44.83457151       0.00018410      -0.00041662      -0.00084514      -4.52125331 F F F      -0.17821038      -0.21868265       0.24750610
Ge      43.08873234      23.11779128      43.34652415       0.00167804      -0.00012195       0.00117293      -4.50332705 F F F       0.66001920      -0.64060972       0.25682909
Ge      44.54894439      24.50077530      44.81084246      -0.00181393       0.00072096      -0.00250841      -4.51615285 F F F       0.01809611      -0.09608250       0.18403626
Ge      43.27409615      25.87805118      40.51603905      -0.00028860       0.00335603       0.00013828      -4.47007966 F F F      -0.46352053       0.32796571      -0.63024347
Ge      44.53334321      27.42502526      41.88646642       0.00236929      -0.00055744      -0.00106946      -4.47868790 F F F       0.96409267       0.33882915       0.21565338
Ge      40.36052587      28.91938165       0.03360812       0.00292524      -0.00046618      -0.00173525      -4.48042144 F F F       0.11320089      -0.24988218      -0.32175704
Ge      41.61658835      30.34125743       1.56627353       0.00157538       0.00043551      -0.00110756      -4.47575779 F F F       0.79895596      -0.00561837       0.14964223
Ge      40.30416782      31.73486728       3.11475106       0.00010261      -0.00044938      -0.00143980      -4.46857195 F F F      -0.14124882       0.29615121      -0.73672298
Ge      41.83346157      33.17391548       4.39004627       0.00149502      -0.00050564      -0.00042927      -4.49338163 F F F       0.09626383      -0.27008556       0.89634383
Ge      43.21016543      28.91915987       2.90877738      -0.00298931       0.00297635       0.00255229      -4.51238791 F F F       0.27289362       0.07842933       0.39612533
Ge      44.78909713      30.27073836       4.49204862       0.00233818      -0.00006337      -0.00026795      -4.44206582 F F F      -1.12639893      -0.88237315       0.31040022
Ge      43.12863605      31.74529970       0.18019974      -0.00010920       0.00077796      -0.00218005      -4.49768734 F F F       0.82690551      -0.20954253      -0.21800061
Ge      44.77361214      33.13239395       1.59627516      -0.00035088       0.00035705      -0.00410287      -4.48414287 F F F      -0.45031620      -0.79579133      -0.20814564
Ge      40.37168121      28.86058688       5.95895575       0.00271092       0.00063068       0.00065904      -4.49533328 F F F       0.21828960       0.28163196      -0.67527140
Ge      41.72851166      30.31580342       7.46100138      -0.00132353      -0.00144174      -0.00084170      -4.50313947 F F F       0.54465506      -0.26113978      -0.51360408
Ge      40.19312294      31.68661088       8.81737371      -0.00029594       0.00076432      -0.00083502      -4.45027447 F F F       1.02649747       0.17479909       0.07885725
Ge      41.87280470      33.09870408      10.12523112      -0.00157580       0.00011338      -0.00023875      -4.51435000 F F F      -0.43617796      -0.03906828       0.01178411
Ge      43.25135329      28.74511573       8.72351116      -0.00033410      -0.00040191       0.00104641      -4.51638313 F F F      -0.24682041       0.30977347       0.14043211
Ge      44.72642374      30.24149706      10.09356740      -0.00280030       0.00001871       0.00197995      -4.47961971 F F F       0.36770740      -0.67249078      -0.18021574
Ge      43.26976518      31.67338978       5.94245043       0.00129149       0.00171712      -0.00057168      -4.49140314 F F F       0.06054154       0.45582745       0.00064536
Ge      44.83156196      33.20820405       7.33194542      -0.00011612       0.00218069       0.00060519      -4.49509179 F F F      -0.61597897      -0.24576841      -0.42687912
Ge      40.37547820      28.89434290      11.66522178      -0.00331342       0.00287731      -0.00004750      -4.44163151 F F F       0.87945434      -0.94367735      -0.13346127
Ge      41.86665897      30.34091825      13.01412780      -0.00024775       0.00323378       0.00304939      -4.50208012 F F F       0.21869187       0.11834244       0.63085590
Ge      40.48082499      31.76421413      14.70078841       0.00015212      -0.00275751      -0.00061220      -4.47133930 F F F       0.71613433       0.08506053      -0.72395645
Ge      42.06037262      33.09673066      16.13388435      -0.00194921       0.00277961      -0.00212285      -4.47357307 F F F      -0.59854315       0.31546964      -0.57868701
Ge      43.31565517      28.82643879      14.50216511       0.00065940       0.00052826      -0.00026631      -4.50821223 F F F      -0.41697516      -0.23326209      -0.38820809
Ge      44.91402014      30.16299648      15.85076648      -0.00101475       0.00282862       0.00093294      -4.47963564 F F F      -0.46226639      -0.08545526       0.51243538
Ge      43.40194709      31.69169449      11.50779595      -0.00117660       0.00219350      -0.00217297      -4.49103703 F F F      -0.33030398       0.40617564       0.70559008
Ge      44.84079356      33.18882173      13.01715980       0.00412726       0.00040869       0.00114211      -4.48163361 F F F      -0.27721199      -0.94670432       0.16826239
Ge      40.37125642      28.93206581      17.54213117      -0.00489276      -0.00025721       0.00256979      -4.49163729 F F F      -0.30729993      -0.36311978      -0.47357716
Ge      41.83957888      30.39111106      18.92784626       0.00115451       0.00059629       0.00012983      -4.47373521 F F F       0.28926536       0.10424038      -0.14908441
Ge      40.45202487      31.91215469      20.41592495      -0.00076822       0.00004906      -0.00168511      -4.50418438 F F F      -0.34764201      -0.55022531      -0.83886501
Ge      41.88969817      33.25026094      21.86663986      -0.00294648       0.00075348       0.00140206      -4.42146720 F F F      -0.00579126       0.40458852      -0.24401490
Ge      43.38301256      28.98083118      20.25760254      -0.00048268       0.00173118       0.00034151      -4.48856131 F F F      -0.10240854      -0.29794836       0.17306139
Ge      44.85044013      30.44016244      21.70052685       0.00003608       0.00108590       0.00218693      -4.49094328 F F F      -0.22136602      -0.65751883       0.10566039
Ge      43.52207140      31.57991928      17.41935330      -0.00112025      -0.00027999      -0.00044248      -4.48288936 F F F      -0.16918748       0.13961586       0.36235932
Ge      44.90546661      33.05552984      18.95533839      -0.00049832      -0.00229324      -0.00259127      -4.45340825 F F F      -0.45073769       0.93321493      -0.93645781
Ge      40.43580106      28.98476714      23.01962279      -0.00035600       0.00308031       0.00118777      -4.49087495 F F F       0.76045764      -0.37910748       0.25861279
Ge      42.02688637      30.46636541      24.50437423       0.00161085       0.00141341       0.00308876      -4.49121969 F F F      -0.13618327      -0.67091270      -0.60727984
Ge      40.46305006      31.63765317      25.97361303       0.00115540      -0.00108821      -0.00202973      -4.44442080 F F F       0.17898850       0.33426677       0.21045707
Ge      41.92291675      33.07585127      27.35813071      -0.00122912      -0.00106814      -0.00690106      -4.50428217 F F F       0.36066032       0.22495644       0.56634131
Ge      43.49795752      29.01099680      25.89411945       0.00005949      -0.00104823       0.00034993      -4.43033574 F F F      -0.52990418      -0.09549298       0.35850346
Ge      44.92593876      30.23645434      27.47270919      -0.00024747      -0.00187555       0.00129471      -4.46671969 F F F      -0.75124383       0.78122162       0.17467868
Ge      43.50188021      31.95951132      23.11563263      -0.00107972       0.00435979      -0.00103374      -4.48328749 F F F       0.21919577      -0.21518166       0.83643090
Ge      44.98721497      33.39670960      24.68484231       0.00211184       0.00173983       0.00073295      -4.44366491 F F F      -1.09779457      -0.39341090      -0.64575050
Ge      40.54739588      28.83559511      28.73524076       0.00240308       0.00076853      -0.00013264      -4.50151123 F F F       0.21044686      -0.35070590       0.02345346
Ge      41.86209522      30.24157210      30.33278338       0.00205228       0.00158141      -0.00331005      -4.48781249 F F F      -0.13251547       0.67367368      -0.01718971
Ge      40.32025205      31.73474740      31.78105244       0.00007619       0.00126387       0.00289946      -4.47173839 F F F       1.05680475       0.56577237      -0.61592811
Ge      41.91405297      33.20042127      33.24450472       0.00013409       0.00015101      -0.00074533      -4.45089721 F F F      -0.29044138      -1.12749282      -0.29776968
Ge      43.29083322      28.97959911      31.90236298      -0.00021181       0.00148411       0.00008375      -4.46320405 F F F       0.35913615      -0.24735428      -0.63390303
Ge      44.91414414      30.46886514      33.12853269       0.00010623       0.00338633       0.00045892      -4.43163360 F F F      -1.36451827      -0.66607921       1.19441694
Ge      43.39043302      31.71715285      28.92419214       0.00196018      -0.00120514      -0.00165392      -4.50819297 F F F      -0.01716253      -0.36978360      -0.26927363
Ge      44.89040324      33.16291283      30.31133700      -0.00142770       0.00170651       0.00228423      -4.49374132 F F F      -0.92060958       0.48210954       0.16639582
Ge      40.44880362      28.87020981      34.66644516       0.00297882      -0.00294446       0.00313421      -4.50996357 F F F      -0.69616524      -0.21727593      -0.40594261
Ge      41.73815106      30.34143844      36.16635942      -0.00108316       0.00045764       0.00093139      -4.44213493 F F F       0.05019651      -0.30707331       0.00542448
Ge      40.37828092      31.77863674      37.60834726       0.00111024       0.00103550       0.00062219      -4.48563861 F F F      -0.10280371       0.07096380       0.29030411
Ge      41.87588221      33.27621615      38.98268036       0.00040970       0.00156558      -0.00166311      -4.50296116 F F F       0.58472176      -0.75005210       0.07148990
Ge      43.14170418      28.86708651      37.55177621      -0.00168136      -0.00138627       0.00001719      -4.50929173 F F F       0.50209562      -0.14501224       0.48258122
Ge      44.60384465      30.36750930      39.06860444      -0.00057894      -0.00338751       0.00115488      -4.44292437 F F F       0.74275460      -0.39050330      -1.32850511
Ge      43.20450993      31.69683820      34.78369095       0.00155887       0.00246208       0.00101512      -4.44190176 F F F       0.81561882       0.14365457      -1.12176609
Ge      44.72043353      33.17432233      36.02434471       0.00130723      -0.00115860      -0.00201435      -4.45423056 F F F       0.54891512       0.55136889      -0.23071303
Ge      40.33104350      28.89291480      40.29868188       0.00168019       0.00080550       0.00160286      -4.47971003 F F F       0.01540392      -1.02709803       0.39958977
Ge      41.83007515      30.22617128      41.74393033       0.00122446       0.00053799       0.00499789      -4.49024010 F F F      -0.06319949       0.38753463       0.65865415
Ge      40.48462577      31.80132653      43.22067394      -0.00177425       0.00044729      -0.00010964      -4.48722066 F F F       0.10643962      -0.03154747      -0.26297934
Ge      41.81882462      33.17106696      44.79978318      -0.00404134       0.00017795       0.00092121      -4.49396406 F F F       0.05200588       0.30530772       0.02568617
Ge      43.14737321      28.84193255      43.38557504      -0.00153535       0.00020643      -0.00335729      -4.47236043 F F F       0.39353526       0.26790957      -0.11491959
Ge      44.68332838      30.19548786      44.92391181       0.00294873       0.00118444       0.00074047      -4.49973370 F F F      -0.39371770       0.35502281      -0.20453478
Ge      43.33593711      31.76629412      40.51571679       0.00022154       0.00062755      -0.00349404      -4.44364765 F F F      -0.86738040       0.48524200      -0.07693384
Ge      44.80747158      33.04317779      42.02246105      -0.00035806       0.00116473       0.00120243      -4.50036109 F F F      -0.44742781       0.44872019       0.57446667
Ge      40.36202059      34.67047367       0.02659784       0.00019225      -0.00059959      -0.00365872      -4.48599251 F F F       0.56035365      -0.23060672       0.34339286
Ge      41.85462553      36.08972834       1.48775746      -0.00061943       0.00019822      -0.00151862      -4.52255572 F F F      -0.01756646      -0.37796234       0.25712247
Ge      40.34462334      37.46839775       2.95779079      -0.00127693       0.00099261       0.00152040      -4.49830881 F F F      -0.34778611      -0.62189018       0.07545345
Ge      41.79621038      38.89056976       4.36422800      -0.00273453       0.00529590       0.00051259      -4.44976968 F F F      -0.20606453      -0.34552238       0.55259558
Ge      43.31415414      34.51396870       2.96859651      -0.00214156      -0.00290929       0.00133512      -4.45020585 F F F      -0.56900948       0.59358992      -0.64929127
Ge      44.79505938      35.91976587       4.27151042       0.00137326       0.00054385       0.00112628      -4.48204227 F F F      -0.10095323       0.52835184       0.73983359
Ge      43.25556950      37.56522190       0.03046709       0.00135488      -0.00076354       0.00053647      -4.45999179 F F F       0.24376619      -0.28584399       0.69405859
Ge      44.73046664      38.85441728       1.58608190       0.00061591      -0.00256161       0.00116190      -4.51156929 F F F       0.45473219      -0.09954073      -0.55180201
Ge      40.41648231      34.59127676       5.96762587      -0.00158051       0.00042589       0.00295553      -4.46277187 F F F      -0.04768724      -0.26812249      -1.10653728
Ge      41.93253573      36.05500128       7.14410016       0.00016567      -0.00151651       0.00143301      -4.43490365 F F F      -0.33654001       0.78680469       0.22506962
Ge      40.30539527      37.38914695       8.58976947       0.00091678       0.00037522       0.00152212      -4.48302102 F F F       0.30115061      -0.62908929       0.14770359
Ge      41.81057173      38.70477758      10.00387142      -0.00029885       0.00007314      -0.00011620      -4.47586515 F F F       0.17364686       0.80348866       0.67192221
Ge      43.16538256      34.65355574       8.67012853       0.00067081       0.00027764       0.00035869      -4.42781350 F F F       0.55936759      -0.93521140      -0.20667025
Ge      44.66799091      35.88207293      10.09930485      -0.00023257      -0.00137236       0.00501965      -4.46106589 F F F       1.16370146       0.34123324       0.41677077
Ge      43.39477754      37.52026922       5.72237311       0.00269420      -0.00102912       0.00285583      -4.50909769 F F F       0.24799571      -0.25304630       0.29989590
Ge      44.81546041      38.94297429       7.36871953      -0.00193718      -0.00345273       0.00053348      -4.48512857 F F F       0.06378540      -0.31141426      -0.17717122
Ge      40.42270927      34.48482761      11.62108842       0.00126998      -0.00203594      -0.00201118      -4.47178601 F F F       0.22241648       1.07021957      -0.63637464
Ge      41.82826170      36.11535780      12.97005662       0.00067931       0.00298102      -0.00061040      -4.47646940 F F F       0.29438023      -0.86352776       0.15431613
Ge      40.45083030      37.52493846      14.44705571       0.00061010      -0.00183257       0.00084350      -4.48651061 F F F      -0.48814567       0.27733341       0.24806122
Ge      41.95221059      38.99254194      15.91159539      -0.00088827       0.00005762       0.00086553      -4.49742963 F F F       0.14507497      -0.29165015      -0.31273134
Ge      43.30986215      34.48720811      14.43802326      -0.00379915       0.00041819      -0.00242817      -4.46027293 F F F      -0.66492028       0.44231401      -0.13665869
Ge      44.70282581      35.92997964      15.83102432      -0.00006864      -0.00153047      -0.00194270      -4.47475497 F F F       0.54924432      -0.01003484       0.90489751
Ge      43.34487103      37.39932978      11.47509251      -0.00158997      -0.00056255       0.00409414      -4.48535621 F F F      -0.31445765       0.23560141       0.37571369
Ge      44.69516025      38.84125336      13.03108531      -0.00321532      -0.00249334      -0.00090945      -4.47623357 F F F       0.36552113       0.08676321      -0.45505227
Ge      40.40788662      34.63903856      17.37376954      -0.00123823      -0.00142599       0.00089838      -4.44788901 F F F       0.84022744      -0.36350091       0.25667910
Ge      41.99576457      36.00396440      18.75111183       0.00223521      -0.00099834       0.00132409      -4.48048635 F F F      -0.37979036      -0.12088780       0.54815089
Ge      40.38296471      37.33152369      20.16609270       0.00033788      -0.00142853      -0.00165961      -4.50452679 F F F      -0.15081595       0.03336231       0.06115427
Ge      41.76042192      38.80076212      21.68671112      -0.00045575      -0.00002080       0.00054082      -4.45153888 F F F      -0.12796064      -0.39146094       0.08869126
Ge      43.34515789      34.58176368      20.37104784      -0.00280932      -0.00191653       0.00133309      -4.50823814 F F F       0.12587996      -0.17630005      -0.79801964
Ge      44.80153625      36.08859112      21.65190185       0.00351784      -0.00134392       0.00182913      -4.48544007 F F F      -0.16530129      -0.05541026       0.42167469
Ge      43.40678583      37.49600302      17.39228142      -0.00039828      -0.00142282      -0.00127524      -4.50005283 F F F       0.03638682       0.02421214      -0.57328829
Ge      44.85589065      38.92327756      18.84681200      -0.00032643       0.00239581       0.00003755      -4.48731176 F F F      -0.61413862       0.08514473       0.15774038
Ge      40.38933543      34.61900487      23.26191146      -0.00227548       0.00325601      -0.00121706      -4.51411369 F F F       0.08155062       0.32069405       0.05025615
Ge      41.81227813      36.12864390      24.71223495      -0.00298205      -0.00135414      -0.00128658      -4.48753540 F F F       0.47984439      -0.22427680      -0.89640823
Ge      40.42826423      37.54758141      26.09307684       0.00235508      -0.00169278       0.00226756      -4.48533648 F F F      -0.75222941      -0.06197615       0.36346886
Ge      41.76960568      38.92302476      27.65389925      -0.00235287      -0.00098447       0.00231106      -4.42674552 F F F      -0.36479692       0.56425253      -0.57600643
Ge      43.32804424      34.68325314      26.01717918      -0.00015912      -0.00056800       0.00112551      -4.49035969 F F F       0.01713164      -0.22177214       0.31609031
Ge      44.76245413      36.03029522      27.53186430       0.00074213      -0.00312101       0.00095931      -4.49113065 F F F       0.22254308       0.57435389      -0.62194538
Ge      43.29659197      37.47874609      23.13910483       0.00035224       0.00118172       0.00225099      -4.50854931 F F F      -0.06028643      -0.19513067       0.11152710
Ge      44.72133245      38.94707819      24.56515362       0.00191289      -0.00410452       0.00308996      -4.50019516 F F F       0.31223689      -0.01958790       0.25296378
Ge      40.66392408      34.52427272      28.98869747      -0.00294949       0.00382260       0.00020383      -4.47185881 F F F      -1.04501134      -0.18281829      -0.64470915
Ge      42.07415046      35.92145271      30.42223336       0.00210181      -0.00370205       0.00219590      -4.38378632 F F F      -1.01964599       1.84778086      -0.86694445
Ge      40.58739680      37.56127220      31.77453174      -0.00211143      -0.00041499      -0.00206076      -4.49598643 F F F      -0.43920184      -0.56251567       0.06726956
Ge      41.93505907      38.93197812      33.32463257       0.00151218       0.00204756       0.00064353      -4.46199084 F F F       0.49481757       0.35408791      -0.28539727
Ge      43.32424830      34.62611982      31.86514148       0.00383864      -0.00204297       0.00147361      -4.36162301 F F F       1.63246050      -1.07295692       0.01084895
Ge      44.85043284      36.10186275      33.10607339       0.00128559      -0.00099960      -0.00188169      -4.43582893 F F F      -0.83933251      -0.01375717       1.21006658
Ge      43.29890632      37.58699007      28.88482318       0.00054910      -0.00056115       0.00480811      -4.45664216 F F F       0.68103911      -1.25276289       0.91012529
Ge      44.79294736      38.94225512      30.33483515      -0.00257703      -0.00222807       0.00054902      -4.51712161 F F F       0.07695458       0.21510527       0.22332406
Ge      40.44869555      34.54084671      34.56929012      -0.00087428       0.00064136      -0.00382328      -4.46618612 F F F      -0.67173124       0.54969367       1.09284662
Ge      41.84615571      35.93307694      36.21368886      -0.00108565       0.00368157       0.00003945      -4.47876150 F F F      -0.36267052      -0.22650129      -0.05104043
Ge      40.30927350      37.51575820      37.47042166      -0.00045058      -0.00052039       0.00226282      -4.46185313 F F F       1.06730364      -0.03859283       0.21270457
Ge      41.82395544      38.91707820      38.94420318      -0.00055485       0.00094215       0.00023146      -4.48201364 F F F      -0.53113050       0.04502170       0.16540778
Ge      43.49523170      34.59417702      37.59745250       0.00163829       0.00020380       0.00183545      -4.46033700 F F F      -0.69194099       0.37466618       0.27982981
Ge      44.75440549      36.02494853      39.26805185      -0.00206775      -0.00050132       0.00061602      -4.49457843 F F F      -0.15063697      -0.08797882      -0.41700578
Ge      43.22740131      37.32563830      34.78959884      -0.00350414       0.00061291      -0.00091393      -4.46539526 F F F       0.89597776       0.68855020      -0.73854867
Ge      44.69624735      38.81639811      36.23881766      -0.00038510      -0.00363535       0.00071754      -4.50624691 F F F       0.07090816      -0.25392910       0.17339647
Ge      40.46853564      34.67574118      40.38961084      -0.00039304      -0.00067115      -0.00016558      -4.47740207 F F F      -0.20192318       0.13381839       0.19845054
Ge      41.84220532      36.05086962      41.93539199       0.00101233      -0.00065207      -0.00241783      -4.50217885 F F F      -0.08820048       0.47004475      -0.09118175
Ge      40.44595208      37.55245738      43.41705028      -0.00077619      -0.00255577      -0.00154364      -4.49782496 F F F       0.00596247      -0.13415411      -0.31408266
Ge      41.98792643      39.00217885      44.74687682       0.00178537       0.00077417      -0.00323685      -4.45714076 F F F      -0.64701582       0.26849813      -0.12480335
Ge      43.26078885      34.64911358      43.39748278       0.00059022      -0.00221672       0.00116902      -4.50238558 F F F       0.51748101      -0.45108482      -0.10547856
Ge      44.66503529      36.10136104      44.87845888       0.00386792       0.00023744      -0.00256529      -4.50215504 F F F       0.57007518      -0.62669918      -0.31119338
Ge      43.20422016      37.59537483      40.47590670      -0.00191475      -0.00193206       0.00142440      -4.48834353 F F F       0.67299629      -0.26500829       0.55856285
Ge      44.81217578      39.03598464      41.95361965      -0.00072754      -0.00359514       0.00348630      -4.48437590 F F F      -0.60905246      -0.63661668       0.23816552
Ge      40.46995881      40.20269028       0.13302930      -0.00053793      -0.00074833      -0.00011030      -4.44208382 F F F      -0.15694139       1.04103894      -0.42133401
Ge      41.99808218      41.81798716       1.52742346      -0.00216385      -0.00233521      -0.00023439      -4.46067545 F F F      -0.81276352      -0.81987757       0.51870493
Ge      40.44990624      43.23843555       2.96903905       0.00016277       0.00196535      -0.00045275      -4.50834310 F F F       0.24411569      -0.23844703      -0.24747984
Ge      41.86777571      44.62733929       4.49854576      -0.00059225       0.00288549      -0.00290924      -4.49516579 F F F       0.00733816       0.36766630      -0.22566593
Ge      43.33879792      40.18965000       3.05614203      -0.00017603      -0.00215716       0.00106657      -4.43079135 F F F      -0.51792843       0.94807066      -0.74237268
Ge      44.68574065      41.60799958       4.46876771      -0.00152308      -0.00211331      -0.00202004      -4.47356237 F F F       0.59514352       0.91254625       0.05931704
Ge      43.21923180      43.40362249       0.16622595       0.00257838      -0.00236954       0.00032175      -4.47524741 F F F       0.69861468       0.04756382      -0.13683247
Ge      44.64841071      44.84536317       1.66386602       0.00011731       0.00133530       0.00017183      -4.47592391 F F F       0.49293499      -0.65763792      -0.52650538
Ge      40.43708606      40.26747772       5.96041277      -0.00041964       0.00060383      -0.00186201      -4.50084411 F F F       0.18774118       0.19361403      -0.30255118
Ge      41.85114179      41.78193619       7.35257214       0.00132561       0.00065584      -0.00170644      -4.49152546 F F F       0.48507098      -0.02646976      -0.39361108
Ge      40.47695929      43.28466207       8.69513387       0.00241076      -0.00116160      -0.00075058      -4.49068388 F F F      -0.19065983       0.14152237       0.71754475
Ge      41.95513534      44.81761737      10.15381487       0.00223670       0.00080499       0.00476866      -4.49096714 F F F      -0.70858118      -0.63406626      -0.01579501
Ge      43.28092014      40.35588095       8.82612497      -0.00336210       0.00105228       0.00152673      -4.48903063 F F F      -0.04203273      -0.30320407      -0.61669335
Ge      44.67134738      41.86910373      10.18344068       0.00256504      -0.00164592       0.00132622      -4.45207399 F F F       0.40085368      -0.99833792       0.57928731
Ge      43.40054583      43.22172222       5.94083357       0.00008880       0.00145631      -0.00102700      -4.51422486 F F F      -0.15309178      -0.21610541       0.08038771
Ge      44.90418805      44.62459021       7.45752646       0.00246657      -0.00017113      -0.00170214      -4.47098930 F F F      -0.98346587       0.35249937      -0.86540789
Ge      40.55880818      40.29923663      11.57050644      -0.00028976      -0.00129005      -0.00389489      -4.46949778 F F F      -0.30345919      -0.14283277      -0.45511019
Ge      41.90072749      41.88328076      12.88748666       0.00122431       0.00282271      -0.00199524      -4.49098074 F F F       0.37145949      -0.53740741       0.78707453
Ge      40.42098949      43.23381998      14.37948261      -0.00135585      -0.00269700       0.00056734      -4.46096953 F F F       0.30496490      -0.10431405       0.03769791
Ge      41.80740268      44.56791492      15.94745564       0.00233167      -0.00163914       0.00220731      -4.46709530 F F F       0.20281326       0.65556865       0.56256785
Ge      43.41966467      40.39624684      14.40007136       0.00139185      -0.00135775       0.00088755      -4.48685981 F F F      -0.49313750       0.59704573       0.46693622
Ge      44.93565544      41.86825953      15.91536567      -0.00291656      -0.00043144      -0.00357631      -4.49306191 F F F      -0.77095253      -0.70959285       0.17962191
Ge      43.38251331      43.35463470      11.59350017      -0.00069032      -0.00139143       0.00209425      -4.48147145 F F F      -0.23450874       0.26696511       0.10961310
Ge      44.90372898      44.55883331      13.14397627      -0.00001955       0.00181163      -0.00142583      -4.40188168 F F F      -0.96686925       1.65447006      -1.27005710
Ge      40.52020009      40.49244089      17.25339842       0.00010691      -0.00161174      -0.00109241      -4.48989703 F F F      -0.21030445      -0.54225350       0.70641169
Ge      41.93788916      41.77363504      18.92235485      -0.00146796      -0.00165855      -0.00012388      -4.50398971 F F F       0.24522999      -0.20428634      -0.48024301
Ge      40.49133434      43.22118730      20.30528955       0.00024373       0.00300629      -0.00289352      -4.49529313 F F F      -0.08932957      -0.00750686       0.61891518
Ge      41.98315623      44.73669120      21.69124686       0.00162248       0.00071460       0.00100991      -4.45123607 F F F       0.44872757      -0.96301084      -0.30128386
Ge      43.26733613      40.19241376      20.40516680       0.00182411       0.00098827      -0.00028530      -4.48795225 F F F       0.66145310       0.87355554      -0.50062975
Ge      44.68496479      41.79110047      21.87491936       0.00067178       0.00065277       0.00056342      -4.49987655 F F F       0.32978621      -0.27064417      -0.72694319
Ge      43.42247820      43.22125178      17.43155444      -0.00158079       0.00023487      -0.00113260      -4.48923995 F F F      -0.47489187      -0.12391650      -0.40365967
Ge      44.85610966      44.66281775      18.81757443       0.00123085      -0.00413474       0.00116095      -4.48647514 F F F      -0.20978736       0.68083611       0.11969168
Ge      40.47029092      40.28791368      23.16553536      -0.00103828       0.00219668       0.00089066      -4.49910811 F F F      -1.03056876       0.11203144      -0.10277112
Ge      41.91855977      41.62354423      24.63732206      -0.00148530       0.00044895      -0.00227527      -4.46040072 F F F       0.23719658      -0.10581111       0.50699952
Ge      40.58149068      43.11318357      26.07800468      -0.00159647      -0.00119699      -0.00117144      -4.49013244 F F F      -1.00789663       0.16242868      -0.44326726
Ge      41.83139448      44.74501577      27.41752289       0.00193887       0.00065267       0.00207702      -4.40731014 F F F      -0.01841219      -0.36786329       0.58844150
Ge      43.33290401      40.23013191      26.25394361       0.00093161      -0.00122017       0.00204106      -4.48721383 F F F      -0.05629629       0.26374663      -0.90702787
Ge      44.78845391      41.78721664      27.50167423      -0.00168519      -0.00253684       0.00126186      -4.46805825 F F F       0.00734506       0.69752246      -0.06252562
Ge      43.27282027      43.20531743      23.35719343       0.00203333       0.00241132       0.00063095      -4.47408076 F F F       0.16177524       0.33633351      -0.66796877
Ge      44.78777567      44.59017171      24.74817069      -0.00000040       0.00108577       0.00118887      -4.50911858 F F F      -0.21260189       0.35903512      -0.54384709
Ge      40.45069165      40.57117959      28.98272658      -0.00167580       0.00447195      -0.00081780      -4.44373076 F F F      -0.80707417      -0.97589082      -0.37739938
Ge      41.99142605      41.87950700      30.26189462       0.00101123       0.00127820      -0.00008097      -4.45163274 F F F       0.78897659       0.90298130       0.60520394
Ge      40.58880214      43.27960840      31.82973939      -0.00129937       0.00182066       0.00182208      -4.50380881 F F F      -0.43241293       0.23672769      -0.34632877
Ge      41.92993746      44.83327225      33.29978910       0.00226542      -0.00266625       0.00159242      -4.50319272 F F F      -0.23326708      -0.31726218      -0.31908292
Ge      43.45796262      40.48105558      31.79574958       0.00108958      -0.00060441      -0.00197846      -4.48931541 F F F      -0.60651413      -0.49886465       0.11744971
Ge      44.83372755      41.88097306      33.32102873      -0.00179908      -0.00258027       0.00458433      -4.45951169 F F F       0.06476807      -0.95359115       0.30434675
Ge      43.45671541      43.54275243      28.84473567      -0.00257249       0.00102850      -0.00267874      -4.48215342 F F F      -0.18235237      -1.00534928       0.55776444
Ge      44.79330249      44.89299014      30.52570388      -0.00361934      -0.00095137      -0.00046372      -4.46477561 F F F       0.18668103      -0.94239113      -0.57578164
Ge      40.55844819      40.45370303      34.72977426      -0.00324772      -0.00103297      -0.00246773      -4.51447921 F F F      -0.10295464       0.25589168       0.07959999
Ge      42.12969456      41.92929024      36.19786782       0.00080914      -0.00065950      -0.00102451      -4.46801277 F F F      -0.91789561      -0.67870283      -0.38214117
Ge      40.54791780      43.23410374      37.55095829      -0.00201110       0.00071295      -0.00011418      -4.43595182 F F F       0.65079926       1.44946196      -0.64877910
Ge      42.07199606      44.75557977      38.93702715      -0.00047376       0.00118168       0.00102084      -4.46647862 F F F      -0.37367652      -0.73793788      -0.40913569
Ge      43.33221429      40.37944396      37.68121412       0.00187439      -0.00009647       0.00314798      -4.47570110 F F F       0.53300286      -0.13238063      -0.36133292
Ge      44.85839001      41.83562742      39.00571282       0.00021249      -0.00219541       0.00114690      -4.48303677 F F F      -0.68569967      -0.21726364       0.92035774
Ge      43.39014999      43.33125131      34.65629426      -0.00205527       0.00014593       0.00121004      -4.44842544 F F F      -0.02240931       0.06013897      -0.05784870
Ge      44.85998898      44.62300127      36.10325321       0.00098697      -0.00163934      -0.00162598      -4.47166781 F F F       0.08520551       1.00055998      -0.47399197
Ge      40.45224807      40.37093617      40.47675222      -0.00070208      -0.00188712       0.00037611      -4.47365876 F F F      -0.45200865      -0.69154800       0.11585574
Ge      41.99481300      41.79446596      41.74423264       0.00378468       0.00029789      -0.00184379      -4.42339091 F F F      -0.57730511       0.03499020       1.04703911
Ge      40.44796946      43.07054694      43.33053819       0.00141718      -0.00294774       0.00015434      -4.49766563 F F F       0.07453137       0.24139010       0.07510566
Ge      41.75038194      44.71228578      44.87579868      -0.00177745       0.00192208      -0.00012268      -4.46604211 F F F       0.23266643      -0.83018267      -0.95835043
Ge      43.39765442      40.55663180      43.39922994      -0.00143811       0.00003510       0.00042431      -4.50544723 F F F       0.18392013      -0.32538760      -0.11176121
Ge      44.76489955      41.96389849      44.98757429       0.00316526       0.00147255      -0.00113532      -4.50152785 F F F      -0.22580037      -0.27037713      -0.26980753
Ge      43.36734006      43.29784481      40.46163094      -0.00257218      -0.00056788      -0.00295387      -4.48951889 F F F       0.90767953       0.36643155      -0.23445619
Ge      44.85869238      44.71731611      42.01101486      -0.00181751       0.00217556       0.00005818      -4.49683606 F F F       0.12302066      -0.66651468      -0.59315962
